  Job Started  at 11:32.55 18th August     2021

  Number of CPUs =     1

  Total number of configurations input =      1

*  Input for Configuration =   1                                               *

  Formula = Sc2Cl6

  Number of irreducible atoms/shells =       3

  Total number atoms/shells =      14

  Dimensionality = 3               :  Bulk

  Symmetry :

  Crystal family                   :  Hexagonal
  Crystal class  (Groth - 1921)    :  Trigonal Rhombohedral

  Space group (centrosymmetric)    :  R -3

  Patterson group                  :  R -3

  Cartesian lattice vectors (Angstroms) :

        3.246588    1.874418    6.441540
       -3.246588    1.874418    6.441540
        0.000000   -3.748837    6.441540

  Cell parameters (Angstroms/Degrees):

  a =       7.4530    alpha =  51.6480
  b =       7.4530    beta  =  51.6480
  c =       7.4530    gamma =  51.6480

  Initial cell volume =         235.198534 Angs**3

  Temperature of configuration =   0.00     K

  Pressure of configuration =         0.000 GPa

  Fractional coordinates of asymmetric unit :

   No.  Atomic       x           y          z         Charge      Occupancy
        Label      (Frac)      (Frac)     (Frac)        (e)         (Frac)
      1 Sc    c    0.333900    0.333900    0.333900 *   3.00000    1.000000
      2 Cl    c    0.073700 *  0.443900 *  0.705300 *   1.48500    1.000000
      3 Cl    s    0.073700 *  0.443900 *  0.705300 *  -2.48500    1.000000

  Constraints :

  Constraint no.      Unconstrained     Constrained    Coefficient    Offset
                         Variable         Variable
           1              Strain 1        Strain 2       1.00000      0.0000

*  General input information                                                   *

  Species output for all configurations :

  Species    Type    Atomic    Atomic    Charge       Radii (Angs)     Library
                     Number     Mass       (e)     Cova   Ionic  VDW   Symbol
    Sc       Core       21      44.96   3.000000   1.440  0.000  2.150
    Cl       Core       17      35.45   1.485000   0.990  0.000  1.650
    Cl       Shell      17       0.00  -2.485000   0.990  0.000  1.650

  Lattice summation method               =    Ewald          (3-D)
                                         =    Parry          (2-D)
                                         =    Saunders et al (1-D)
  Accuracy factor for lattice sums       =   12.000

  Analytic derivatives to be used

  Time limit = Infinity

  Maximum range for interatomic potentials =    100000.000000 Angstroms

  General interatomic potentials :

Atom  Types   Potential      Parameter       Value         Units   Cutoffs(Ang)
  1     2                                                            Min /  Max
Cl   c Cl   s Spring (c-s)  Spring k 2       29.380000    eV*Ang^-2 0.000  0.800
                            Spring k 4       0.0000000    eV*Ang^-4
Sc   c Cl   s Buckingham    Buckingham A     12131.350    eV        0.000 12.000
                            Buckingham rho  0.25070000    Ang
                            Buckingham C     0.0000000    eV*Ang^6
Cl   s Cl   s Buckingham    Buckingham A     1227.2000    eV        0.000 12.000
                            Buckingham rho  0.32100000    Ang
                            Buckingham C     14.530000    eV*Ang^6

*  Output for configuration   1                                                *

  Components of energy :

  Interatomic potentials     =           6.77737779 eV
  Monopole - monopole (real) =         -30.86300284 eV
  Monopole - monopole (recip)=         -65.52201623 eV
  Monopole - monopole (total)=         -96.38501907 eV
  Total lattice energy :
    Primitive unit cell      =         -89.60764128 eV
    Non-primitive unit cell  =        -268.82292384 eV
  Total lattice energy (in kJmol-1):
    Primitive unit cell      =           -8645.7676 kJ/(mole unit cells)
    Non-primitive unit cell  =          -25937.3028 kJ/(mole unit cells)

  Number of variables =        9

  Maximum number of calculations  =          1000
  Maximum Hessian update interval =            10
  Maximum step size               =   1.000000000
  Maximum parameter tolerance     =   0.000010000
  Maximum function  tolerance     =   0.000010000
  Maximum gradient  tolerance     =   0.001000000
  Maximum gradient  component     =   0.010000000

  Symmetry constrained optimisation

  Symmetry used for second derivatives

  Cell parameters to be optimised using strains

  Newton-Raphson optimiser to be used

  BFGS hessian update to be used

  Lower half triangular hessian to be used

  Start of bulk optimisation :

  ** Hessian calculated **
  ** Hessian calculated **
  ** Hessian calculated **
  ** Hessian calculated **
  ** Hessian calculated **
  ** Hessian calculated **
  ** Hessian calculated **
  ** Hessian calculated **

  **** Optimisation achieved ****

  Final energy =     -99.85637867 eV
  Final Gnorm  =       0.00022970

  Components of energy :

  Interatomic potentials     =          20.55356182 eV
  Monopole - monopole (real) =          80.99460097 eV
  Monopole - monopole (recip)=        -201.40454146 eV
  Monopole - monopole (total)=        -120.40994049 eV
  Total lattice energy :
    Primitive unit cell      =         -99.85637867 eV
    Non-primitive unit cell  =        -299.56913600 eV
  Total lattice energy (in kJmol-1):
    Primitive unit cell      =           -9634.6141 kJ/(mole unit cells)
    Non-primitive unit cell  =          -28903.8423 kJ/(mole unit cells)

  Final asymmetric unit coordinates :

   No.  Atomic        x           y           z         Radius
        Label       (Frac)      (Frac)      (Frac)       (Angs)
     1  Sc    c     0.333302    0.333302    0.333302    0.000000
     2  Cl    c     0.077345    0.440528    0.713912    0.000000
     3  Cl    s     0.065297    0.450169    0.680282    0.000000

  Final Cartesian lattice vectors (Angstroms) :

        3.146819    1.816817    6.452887
       -3.146819    1.816817    6.452887
        0.000000   -3.633633    6.452887

  Final cell parameters and derivatives :

       a            7.405608 Angstrom     dE/de1(xx)    -0.000123 eV/strain
       b            7.405608 Angstrom     dE/de2(yy)     0.000000 eV/strain
       c            7.405608 Angstrom     dE/de3(zz)    -0.000049 eV/strain
       alpha       50.291669 Degrees      dE/de4(yz)     0.000000 eV/strain
       beta        50.291669 Degrees      dE/de5(xz)     0.000000 eV/strain
       gamma       50.291669 Degrees      dE/de6(xy)     0.000000 eV/strain

  Primitive cell volume =           221.354351 Angs**3

  Density of cell =      2.270208 g/cm**3

  Non-primitive lattice parameters :

  a    =     6.293637  b   =     6.293637  c    =    19.358660
  alpha=    90.000000  beta=    90.000000  gamma=   120.000000

  Non-primitive cell volume =           664.063053 Angs**3

  Final internal derivatives :

   No.  Atomic          a             b             c           Radius
        Label          (eV)          (eV)          (eV)        (eV/Angs)
      1 Sc    c       0.000000      0.000000      0.000333      0.000000
      2 Cl    c      -0.000512      0.000026      0.001871      0.000000
      3 Cl    s      -0.000302      0.000461     -0.000278      0.000000
  Maximum abs         0.000512      0.000461      0.001871      0.000000

  Comparison of initial and final structures :

  Parameter   Initial value   Final value   Difference    Units      Percent
    Volume       705.595603    664.063053   -41.532550    Angs**3     -5.89
    a              6.493176      6.293637    -0.199538    Angstroms   -3.07
    b              6.493176      6.293637    -0.199538    Angstroms   -3.07
    c             19.324619     19.358660     0.034041    Angstroms    0.18
    alpha         90.000000     90.000000     0.000000    Degrees      0.00
    beta          90.000000     90.000000     0.000000    Degrees      0.00
    gamma        120.000000    120.000000     0.000000    Degrees      0.00
      1 x          0.000000      0.000000     0.000000    Fractional   0.00
      1 y          0.000000      0.000000     0.000000    Fractional   0.00
      1 z          0.333900      0.333302     0.000598    Fractional   0.18
      2 x          0.666067      0.666750     0.000683    Fractional   0.10
      2 y          0.702333      0.696683     0.005650    Fractional   0.80
      2 z          0.407633      0.410595     0.002962    Fractional   0.73
      3 x          0.666067      0.666715     0.000648    Fractional   0.10
      3 y          0.702333      0.718301     0.015968    Fractional   2.27
      3 z          0.407633      0.398583     0.009051    Fractional   2.22

  Born effective charge tensors :

  Atom             x           y             z
    1 Sc    x       1.8547     -0.0008      0.0000
            y       0.0008      1.8547      0.0000
            z       0.0000      0.0000      1.3341
    2 Cl    x      -0.6622     -0.0739     -0.0054
            y      -0.0744     -0.5743      0.0077
            z      -0.0118      0.0242     -0.4447

  Elastic Constant Matrix: (Units=GPa)

  Indices      1         2         3         4         5         6
       1     59.0042   36.7253    0.0676   -0.0391    0.0164    0.0000
       2     36.7253   59.0042    0.0676    0.0391   -0.0164   -0.0000
       3      0.0676    0.0676    1.3662   -0.0000   -0.0000    0.0000
       4     -0.0391    0.0391   -0.0000    0.1362   -0.0000   -0.0164
       5      0.0164   -0.0164   -0.0000   -0.0000    0.1362   -0.0391
       6      0.0000   -0.0000    0.0000   -0.0164   -0.0391   11.1394

  Elastic Compliance Matrix: (Units=1/GPa)

  Indices      1         2         3         4         5         6
       1    0.027693 -0.017246 -0.000517  0.012917 -0.005403 -0.000000
       2   -0.017246  0.027693 -0.000517 -0.012917  0.005403  0.000000
       3   -0.000517 -0.000517  0.731998 -0.000000  0.000000 -0.000000
       4    0.012917 -0.012917 -0.000000  7.352608  0.000000  0.010807
       5   -0.005403  0.005403  0.000000  0.000000  7.352608  0.025834
       6   -0.000000  0.000000 -0.000000  0.010807  0.025834  0.089878

  Mechanical properties :

  Convention :                    Reuss         Voigt         Hill
  Bulk  Modulus (GPa)     =       1.33187      21.45510      11.39349
  Shear Modulus (GPa)     =       0.31507       7.78329       4.04918
  Velocity S-wave (km/s)  =       0.37254       1.85161       1.33552
  Velocity P-wave (km/s)  =       0.87848       3.74459       2.71972
  Compressibility (1/GPa) =    0.75082247
  Stress axis :                     x             y             z
  Youngs Moduli (GPa)     =      36.11042      36.11042       1.36612
  Poissons Ratio (x)      =                     0.62276       0.00071
  Poissons Ratio (y)      =       0.62276                     0.00071
  Poissons Ratio (z)      =       0.01868       0.01868

  Piezoelectric Strain Matrix: (Units=C/m**2)

  Indices      1         2         3         4         5         6
       x    -0.00000  -0.00000  -0.00000  -0.00000  -0.00000  -0.00000
       y     0.00000  -0.00000   0.00000   0.00000   0.00000  -0.00000
[...]
   1228 y         -3.914802     -3.917045    -0.002244    Cartesian    0.06
   1228 z         -5.189744     -5.186663     0.003081    Cartesian   -0.06
   1229 x        -10.651577    -10.650070     0.001507    Cartesian   -0.01
   1229 y          0.281430      0.282528     0.001098    Cartesian    0.39
   1229 z         -5.189744     -5.188310     0.001435    Cartesian   -0.03
   1230 x        -14.522519    -14.525397    -0.002879    Cartesian    0.02
   1230 y         -3.352464     -3.353699    -0.001234    Cartesian    0.04
   1230 z         -1.263142     -1.262998     0.000144    Cartesian   -0.01
   1231 x         -7.504758     -7.503608     0.001151    Cartesian   -0.02
   1231 y          5.731880      5.730993    -0.000887    Cartesian   -0.02
   1231 z         -5.189744     -5.187590     0.002155    Cartesian   -0.04
   1232 x         -7.505211     -7.502383     0.002828    Cartesian   -0.04
   1232 y        -16.632518    -16.626237     0.006280    Cartesian   -0.04
   1232 z          7.716029      7.712205    -0.003824    Cartesian   -0.05
   1233 x         15.009970     15.003094    -0.006876    Cartesian   -0.05
   1233 y         -3.633895     -3.633199     0.000695    Cartesian   -0.02
   1233 z          7.716029      7.712194    -0.003835    Cartesian   -0.05
   1234 x          3.870942      3.874664     0.003722    Cartesian    0.10
   1234 y         10.901161     10.902590     0.001429    Cartesian    0.01
   1234 z         -1.263142     -1.261666     0.001476    Cartesian   -0.12
   1235 x        -10.652030    -10.650367     0.001663    Cartesian   -0.02
   1235 y         -3.914802     -3.915219    -0.000417    Cartesian    0.01
   1235 z         -5.189744     -5.188625     0.001119    Cartesian   -0.02
   1236 x        -14.522971    -14.523047    -0.000075    Cartesian    0.00
   1236 y          6.985836      6.982726    -0.003110    Cartesian   -0.04
   1236 z         11.642631     11.639915    -0.002716    Cartesian   -0.02
   1237 x          7.504758      7.501017    -0.003742    Cartesian   -0.05
   1237 y          8.802653      8.804452     0.001800    Cartesian    0.02
   1237 z         -1.263142     -1.260147     0.002996    Cartesian   -0.24
   1238 x         10.651577     10.650038    -0.001539    Cartesian   -0.01
   1238 y          3.352203      3.349788    -0.002415    Cartesian   -0.07
   1238 z         18.095518     18.094042    -0.001475    Cartesian   -0.01
   1239 x        -11.863151    -11.861375     0.001776    Cartesian   -0.01
   1239 y          5.450711      5.449678    -0.001034    Cartesian   -0.02
   1239 z         18.095518     18.093912    -0.001606    Cartesian   -0.01
   1240 x         -5.082516     -5.083135    -0.000619    Cartesian    0.01
   1240 y          1.535386      1.536307     0.000921    Cartesian    0.06
   1240 z         -7.716029     -7.716575    -0.000547    Cartesian    0.01
   1241 x          5.082063      5.079733    -0.002330    Cartesian   -0.05
   1241 y         -9.365251     -9.364971     0.000280    Cartesian   -0.00
   1241 z         -5.189744     -5.188058     0.001686    Cartesian   -0.03
   1242 x         -1.211574     -1.210981     0.000594    Cartesian   -0.05
   1242 y          8.802914      8.802471    -0.000443    Cartesian   -0.01
   1242 z         20.621802     20.622239     0.000437    Cartesian    0.00
   1243 x         -7.505211     -7.504101     0.001110    Cartesian   -0.01
   1243 y         -9.365251     -9.363802     0.001449    Cartesian   -0.02
   1243 z         -5.189744     -5.188013     0.001731    Cartesian   -0.03
   1244 x         -5.082063     -5.082205    -0.000142    Cartesian    0.00
   1244 y         -5.169281     -5.169827    -0.000546    Cartesian    0.01
   1244 z         -7.716029     -7.716787    -0.000758    Cartesian    0.01
   1245 x         -1.935244     -1.932050     0.003194    Cartesian   -0.17
   1245 y        -17.886997    -17.890208    -0.003211    Cartesian    0.02
   1245 z          5.189744      5.186989    -0.002756    Cartesian   -0.05
   1246 x         13.311397     13.312524     0.001127    Cartesian    0.01
   1246 y         -9.083821     -9.088274    -0.004453    Cartesian    0.05
   1246 z          5.189744      5.186920    -0.002824    Cartesian   -0.05
   1247 x         -2.422696     -2.419892     0.002804    Cartesian   -0.12
   1247 y          3.633895      3.633705    -0.000189    Cartesian   -0.01
   1247 z         -7.716029     -7.715926     0.000103    Cartesian   -0.00
   1248 x        -14.522519    -14.519764     0.002754    Cartesian   -0.02
   1248 y        -10.619731    -10.615458     0.004272    Cartesian   -0.04
   1248 z         11.642631     11.639037    -0.003594    Cartesian   -0.03
   1249 x          4.358393      4.358073    -0.000320    Cartesian   -0.01
   1249 y        -14.253364    -14.255340    -0.001976    Cartesian    0.01
   1249 z         -1.263142     -1.261831     0.001311    Cartesian   -0.10
   1250 x          1.935697      1.932666    -0.003031    Cartesian   -0.16
   1250 y        -17.886735    -17.892940    -0.006205    Cartesian    0.03
   1250 z          7.716029      7.721640     0.005611    Cartesian    0.07
   1251 x         11.376153     11.383016     0.006863    Cartesian    0.06
   1251 y        -12.436286    -12.436740    -0.000454    Cartesian    0.00
   1251 z          7.716029      7.721716     0.005687    Cartesian    0.07
   1252 x         -4.357940     -4.358389    -0.000449    Cartesian    0.01
   1252 y        -17.886735    -17.890994    -0.004259    Cartesian    0.02
   1252 z          7.716029      7.717320     0.001291    Cartesian    0.02
   1253 x         14.522971     14.526836     0.003864    Cartesian    0.03
   1253 y         -6.985836     -6.987601    -0.001765    Cartesian    0.03
   1253 z          7.716029      7.717235     0.001207    Cartesian    0.02
   1254 x          8.228881      8.228458    -0.000423    Cartesian   -0.01
   1254 y          3.352464      3.352849     0.000385    Cartesian    0.01
   1254 z         20.621802     20.622185     0.000383    Cartesian    0.00
   1255 x          5.082063      5.080431    -0.001632    Cartesian   -0.03
   1255 y         12.436547     12.432674    -0.003873    Cartesian   -0.03
   1255 z         14.168915     14.171583     0.002667    Cartesian    0.02
   1256 x        -13.798396    -13.795795     0.002601    Cartesian   -0.02
   1256 y        -12.436286    -12.440992    -0.004707    Cartesian    0.04
   1256 z          7.716029      7.716735     0.000706    Cartesian    0.01
   1257 x         -2.422696     -2.422289     0.000407    Cartesian   -0.02
   1257 y         14.534794     14.532254    -0.002540    Cartesian   -0.02
   1257 z         11.642631     11.641686    -0.000945    Cartesian   -0.01
   1258 x         14.522971     14.525817     0.002846    Cartesian    0.02
   1258 y          3.915063      3.910364    -0.004699    Cartesian   -0.12
   1258 z          7.716029      7.716648     0.000620    Cartesian    0.01
   1259 x        -10.652030    -10.648734     0.003296    Cartesian   -0.03
   1259 y          3.352464      3.353903     0.001439    Cartesian    0.04
   1259 z         20.621802     20.617520    -0.004282    Cartesian   -0.02
   1260 x         -2.422696     -2.419739     0.002956    Cartesian   -0.12
   1260 y         -7.267005     -7.266544     0.000461    Cartesian   -0.01
   1260 z         -7.716029     -7.715667     0.000361    Cartesian   -0.00
   1261 x        -14.522971    -14.519528     0.003443    Cartesian   -0.02
   1261 y        -11.182329    -11.179474     0.002856    Cartesian   -0.03
   1261 z          5.189744      5.192716     0.002971    Cartesian    0.06
   1262 x         -7.505211     -7.502981     0.002230    Cartesian   -0.03
   1262 y         12.436547     12.434008    -0.002539    Cartesian   -0.02
   1262 z         14.168915     14.165850    -0.003065    Cartesian   -0.02
   1263 x         13.798396     13.794238    -0.004158    Cartesian   -0.03
   1263 y          5.169020      5.167460    -0.001560    Cartesian   -0.03
   1263 z          5.189744      5.192684     0.002939    Cartesian    0.06
   1264 x          4.358393      4.356087    -0.002306    Cartesian   -0.05
   1264 y          0.281169      0.278379    -0.002790    Cartesian   -0.99
   1264 z         -7.716029     -7.714633     0.001396    Cartesian   -0.02
   1265 x        -16.945214    -16.940962     0.004252    Cartesian   -0.03
   1265 y         -6.985836     -6.992085    -0.006249    Cartesian    0.09
   1265 z          7.716029      7.714860    -0.001168    Cartesian   -0.02
   1266 x        -15.009970    -15.005064     0.004906    Cartesian   -0.03
   1266 y          7.267528      7.265103    -0.002424    Cartesian   -0.03
   1266 z          5.189744      5.192038     0.002293    Cartesian    0.04
   1267 x         11.376153     11.379501     0.003348    Cartesian    0.03
   1267 y          9.365513      9.358652    -0.006861    Cartesian   -0.07
   1267 z          7.716029      7.714856    -0.001173    Cartesian   -0.02
   1268 x         -1.935244     -1.935569    -0.000324    Cartesian    0.02
   1268 y         14.815701     14.810190    -0.005511    Cartesian   -0.04
   1268 z          5.189744      5.192059     0.002315    Cartesian    0.04
   1269 x        -15.009970    -15.005072     0.004898    Cartesian   -0.03
   1269 y          0.000261      0.000084    -0.000178    Cartesian  -67.95
   1269 z         -1.263142     -1.259488     0.003654    Cartesian   -0.29
   1270 x         10.651577     10.649186    -0.002391    Cartesian   -0.02
   1270 y         -7.548696     -7.546977     0.001719    Cartesian   -0.02
   1270 z         18.095518     18.094464    -0.001053    Cartesian   -0.01
   1271 x          4.357940      4.355248    -0.002692    Cartesian   -0.06
   1271 y         -3.915063     -3.912185     0.002878    Cartesian   -0.07
   1271 z         -7.716029     -7.714315     0.001714    Cartesian   -0.02
   1272 x        -17.669337    -17.676330    -0.006993    Cartesian    0.04
   1272 y         -1.535648     -1.544219    -0.008571    Cartesian    0.56
   1272 z          5.189744      5.192516     0.002771    Cartesian    0.05
   1273 x        -16.945214    -16.940908     0.004306    Cartesian   -0.03
   1273 y          3.915063      3.911676    -0.003387    Cartesian   -0.09
   1273 z          7.716029      7.714119    -0.001910    Cartesian   -0.02
   1274 x        -10.164579    -10.157606     0.006973    Cartesian   -0.07
   1274 y          3.633372      3.632088    -0.001283    Cartesian   -0.04
   1274 z         -5.189744     -5.185210     0.004534    Cartesian   -0.09
   1275 x         -1.935697     -1.933741     0.001956    Cartesian   -0.10
   1275 y         -0.281430     -0.284832    -0.003402    Cartesian    1.21
   1275 z         24.548404     24.544447    -0.003957    Cartesian   -0.02
   1276 x          1.935697      1.936504     0.000807    Cartesian    0.04
   1276 y         14.815962     14.810484    -0.005479    Cartesian   -0.04
   1276 z          7.716029      7.714117    -0.001911    Cartesian   -0.02
   1277 x          7.017760      7.028594     0.010834    Cartesian    0.15
   1277 y         12.717977     12.719595     0.001618    Cartesian    0.01
   1277 z          5.189744      5.192712     0.002967    Cartesian    0.06
   1278 x        -13.798396    -13.791404     0.006992    Cartesian   -0.05
   1278 y          9.365513      9.357821    -0.007692    Cartesian   -0.08
   1278 z          7.716029      7.711363    -0.004666    Cartesian   -0.06
   1279 x         -4.357940     -4.354770     0.003170    Cartesian   -0.07
   1279 y         14.815962     14.806087    -0.009875    Cartesian   -0.07
   1279 z          7.716029      7.711387    -0.004642    Cartesian   -0.06
   1280 x        -16.458216    -16.452446     0.005770    Cartesian   -0.04
   1280 y         -0.000261      0.000267     0.000528    Cartesian -202.07
   1280 z          1.263142      1.266621     0.003479    Cartesian    0.28
   1281 x        -10.164579    -10.157908     0.006671    Cartesian   -0.07
   1281 y         10.900638     10.898035    -0.002603    Cartesian   -0.02
   1281 z          1.263142      1.267447     0.004305    Cartesian    0.34
   1282 x         -2.422696     -2.425520    -0.002824    Cartesian    0.12
   1282 y         -3.633372     -3.633288     0.000083    Cartesian   -0.00
   1282 z         24.548404     24.544617    -0.003788    Cartesian   -0.02
   1283 x          1.211574      1.212968     0.001394    Cartesian    0.12
   1283 y         -1.535648     -1.533147     0.002501    Cartesian   -0.16
   1283 z         24.548404     24.544611    -0.003793    Cartesian   -0.02
   1284 x        -10.164579    -10.158137     0.006442    Cartesian   -0.06
   1284 y         -7.267528     -7.266076     0.001452    Cartesian   -0.02
   1284 z         -5.189744     -5.185485     0.004260    Cartesian   -0.08
   1285 x        -14.522519    -14.518328     0.004191    Cartesian   -0.03
   1285 y         -3.352464     -3.348726     0.003738    Cartesian   -0.11
   1285 z         18.095518     18.091754    -0.003764    Cartesian   -0.02
   1286 x         -0.724123     -0.721520     0.002603    Cartesian   -0.36
   1286 y          9.083821      9.081452    -0.002369    Cartesian   -0.03
   1286 z         -5.189744     -5.187051     0.002693    Cartesian   -0.05
   1287 x          3.870942      3.866770    -0.004172    Cartesian   -0.11
   1287 y         10.901161     10.899160    -0.002000    Cartesian   -0.02
   1287 z         18.095518     18.092375    -0.003143    Cartesian   -0.02
   1288 x          7.504758      7.504119    -0.000639    Cartesian   -0.01
   1288 y         12.436286     12.431919    -0.004366    Cartesian   -0.04
   1288 z         11.642631     11.640359    -0.002272    Cartesian   -0.02
   1289 x          7.504758      7.504688    -0.000070    Cartesian   -0.00
   1289 y          8.802653      8.798279    -0.004374    Cartesian   -0.05
   1289 z         18.095518     18.092625    -0.002893    Cartesian   -0.02
   1290 x          7.504758      7.499879    -0.004879    Cartesian   -0.07
   1290 y        -12.999146    -12.991922     0.007224    Cartesian   -0.06
   1290 z         -1.263142     -1.257564     0.005578    Cartesian   -0.44
   1291 x         -2.422696     -2.421994     0.000702    Cartesian   -0.03
   1291 y        -18.167904    -18.165089     0.002815    Cartesian   -0.02
   1291 z         11.642631     11.642220    -0.000411    Cartesian   -0.00
   1292 x         13.798849     13.793573    -0.005275    Cartesian   -0.04
   1292 y          5.731618      5.727260    -0.004358    Cartesian   -0.08
   1292 z         11.642631     11.644245     0.001614    Cartesian    0.01
   1293 x         -5.082063     -5.079850     0.002213    Cartesian   -0.04
   1293 y         -1.535648     -1.532293     0.003355    Cartesian   -0.22
   1293 z         24.548404     24.544049    -0.004356    Cartesian   -0.02
   1294 x          0.724123      0.720137    -0.003986    Cartesian   -0.55
   1294 y          1.817078      1.816896    -0.000182    Cartesian   -0.01
   1294 z         24.548404     24.544077    -0.004327    Cartesian   -0.02
   1295 x         -0.724123     -0.721674     0.002449    Cartesian   -0.34
   1295 y        -12.717977    -12.715586     0.002391    Cartesian   -0.02
   1295 z         -5.189744     -5.186398     0.003346    Cartesian   -0.06
   1296 x          8.716333      8.713790    -0.002542    Cartesian   -0.03
   1296 y          3.633372      3.632511    -0.000860    Cartesian   -0.02
   1296 z         -5.189744     -5.188144     0.001601    Cartesian   -0.03

  Time to end of optimisation  =      377.8889 seconds

  Timing analysis for GULP :

  Task / Subroutine                                          Time (Seconds)
  Calculation of reciprocal space energy and derivatives          0.0038
  Calculation of reciprocal space energy using symmetry           0.0369
  Calculation of real space energy and derivatives                0.0147
  Calculation of real space energy using symmetry                 0.6583
  Calculation for region 1 energy and derivatives (2-b)         116.9390
  Calculation for region 2a energy                               84.1908
  Calculation for region 2b energy                                0.0138
  Calculation and manipulation of Hessian matrix                  0.0881
  Calculation of matrix inversion                               173.9510
  Symmetry generation of equivalent positions                     0.0015
  Global summation overhead                                       0.0002

  Dump file written as ScCl3.grs

  **** GULP has completed with   2 warnings - beware! ****

  Job Finished at 11:39.15 18th August     2021