  Job Started  at 14:26.30  7th March      2022

  Number of CPUs =     1

  Total number of configurations input =      1

*  Input for Configuration =   1                                               *

  Formula = Li17Sc5Cl32

  Number of irreducible atoms/shells =      86

  Total number atoms/shells =      86

  Dimensionality = 3               :  Bulk

  Cartesian lattice vectors (Angstroms) :

       10.403700    0.000000    0.000000
        0.000000   10.403700    0.000000
        0.000000    0.000000   10.403700

  Cell parameters (Angstroms/Degrees):

  a =      10.4037    alpha =  90.0000
  b =      10.4037    beta  =  90.0000
  c =      10.4037    gamma =  90.0000

  Initial cell volume =        1126.065003 Angs**3

  Temperature of configuration =   0.00     K

  Pressure of configuration =         0.000 GPa

  Fractional coordinates of asymmetric unit :

   No.  Atomic       x           y          z         Charge      Occupancy
        Label      (Frac)      (Frac)     (Frac)        (e)         (Frac)
      1 Li    c    0.375000    0.375000    0.875000     1.00000    1.000000
      2 Li    c    0.250000 *  0.750000 *  0.500000 *   1.00000    1.000000
      3 Li    c    0.000000 *  0.750000 *  0.750000 *   1.00000    1.000000
      4 Li    c    0.750000 *  0.500000 *  0.250000 *   1.00000    1.000000
      5 Li    c    0.500000 *  0.000000 *  0.500000 *   1.00000    1.000000
      6 Li    c    0.125000 *  0.875000 *  0.125000 *   1.00000    1.000000
      7 Li    c    0.500000 *  0.500000 *  0.500000 *   1.00000    1.000000
      8 Li    c    0.500000 *  0.750000 *  0.750000 *   1.00000    1.000000
      9 Li    c    0.250000 *  0.750000 *  0.000000 *   1.00000    1.000000
     10 Li    c    0.250000 *  0.250000 *  0.500000 *   1.00000    1.000000
     11 Li    c    0.750000 *  0.250000 *  0.000000 *   1.00000    1.000000
     12 Li    c    0.500000 *  0.250000 *  0.250000 *   1.00000    1.000000
     13 Li    c    0.000000 *  0.750000 *  0.250000 *   1.00000    1.000000
     14 Li    c    0.750000 *  0.750000 *  0.500000 *   1.00000    1.000000
     15 Li    c    0.250000 *  0.000000 *  0.750000 *   1.00000    1.000000
     16 Li    c    0.000000 *  0.500000 *  0.000000 *   1.00000    1.000000
     17 Li    c    0.000000 *  0.000000 *  0.500000 *   1.00000    1.000000
     18 Sc    c    0.250000 *  0.500000 *  0.250000 *   3.00000    1.000000
     19 Sc    c    0.750000 *  0.500000 *  0.750000 *   3.00000    1.000000
     20 Sc    c    0.000000 *  0.250000 *  0.750000 *   3.00000    1.000000
     21 Sc    c    0.500000 *  0.000000 *  0.000000 *   3.00000    1.000000
     22 Sc    c    0.750000 *  0.000000 *  0.250000 *   3.00000    1.000000
     23 Cl    c    0.250000 *  0.250000 *  0.250000 *  -1.00000    1.000000
     24 Cl    c    0.750000 *  0.500000 *  0.500000 *  -1.00000    1.000000
     25 Cl    c    0.500000 *  0.000000 *  0.750000 *  -1.00000    1.000000
     26 Cl    c    0.000000 *  0.750000 *  0.000000 *  -1.00000    1.000000
     27 Cl    c    0.250000 *  0.000000 *  0.000000 *  -1.00000    1.000000
     28 Cl    c    0.750000 *  0.750000 *  0.750000 *  -1.00000    1.000000
     29 Cl    c    0.500000 *  0.250000 *  0.500000 *  -1.00000    1.000000
     30 Cl    c    0.000000 *  0.500000 *  0.250000 *  -1.00000    1.000000
     31 Cl    c    0.500000 *  0.750000 *  0.500000 *  -1.00000    1.000000
     32 Cl    c    0.750000 *  0.500000 *  0.000000 *  -1.00000    1.000000
     33 Cl    c    0.000000 *  0.000000 *  0.750000 *  -1.00000    1.000000
     34 Cl    c    0.000000 *  0.250000 *  0.000000 *  -1.00000    1.000000
     35 Cl    c    0.500000 *  0.500000 *  0.250000 *  -1.00000    1.000000
     36 Cl    c    0.250000 *  0.000000 *  0.500000 *  -1.00000    1.000000
     37 Cl    c    0.250000 *  0.750000 *  0.750000 *  -1.00000    1.000000
     38 Cl    c    0.500000 *  0.000000 *  0.250000 *  -1.00000    1.000000
     39 Cl    c    0.750000 *  0.250000 *  0.250000 *  -1.00000    1.000000
     40 Cl    c    0.000000 *  0.500000 *  0.750000 *  -1.00000    1.000000
     41 Cl    c    0.250000 *  0.500000 *  0.500000 *  -1.00000    1.000000
     42 Cl    c    0.750000 *  0.000000 *  0.000000 *  -1.00000    1.000000
     43 Cl    c    0.250000 *  0.500000 *  0.000000 *  -1.00000    1.000000
     44 Cl    c    0.000000 *  0.000000 *  0.250000 *  -1.00000    1.000000
     45 Cl    c    0.500000 *  0.500000 *  0.750000 *  -1.00000    1.000000
     46 Cl    c    0.750000 *  0.000000 *  0.500000 *  -1.00000    1.000000
     47 Cl    c    0.000000 *  0.250000 *  0.500000 *  -1.00000    1.000000
     48 Cl    c    0.500000 *  0.750000 *  0.000000 *  -1.00000    1.000000
     49 Cl    c    0.500000 *  0.250000 *  0.000000 *  -1.00000    1.000000
     50 Cl    c    0.000000 *  0.750000 *  0.500000 *  -1.00000    1.000000
     51 Cl    c    0.750000 *  0.250000 *  0.750000 *  -1.00000    1.000000
     52 Cl    c    0.250000 *  0.750000 *  0.250000 *  -1.00000    1.000000
     53 Cl    c    0.750000 *  0.750000 *  0.250000 *  -1.00000    1.000000
     54 Cl    c    0.250000 *  0.250000 *  0.750000 *  -1.00000    1.000000
     55 Cl    s    0.250000 *  0.250000 *  0.250000 *   0.00000    1.000000
     56 Cl    s    0.750000 *  0.500000 *  0.500000 *   0.00000    1.000000
     57 Cl    s    0.500000 *  0.000000 *  0.750000 *   0.00000    1.000000
     58 Cl    s    0.000000 *  0.750000 *  0.000000 *   0.00000    1.000000
     59 Cl    s    0.250000 *  0.000000 *  0.000000 *   0.00000    1.000000
     60 Cl    s    0.750000 *  0.750000 *  0.750000 *   0.00000    1.000000
     61 Cl    s    0.500000 *  0.250000 *  0.500000 *   0.00000    1.000000
     62 Cl    s    0.000000 *  0.500000 *  0.250000 *   0.00000    1.000000
     63 Cl    s    0.500000 *  0.750000 *  0.500000 *   0.00000    1.000000
     64 Cl    s    0.750000 *  0.500000 *  0.000000 *   0.00000    1.000000
     65 Cl    s    0.000000 *  0.000000 *  0.750000 *   0.00000    1.000000
     66 Cl    s    0.000000 *  0.250000 *  0.000000 *   0.00000    1.000000
     67 Cl    s    0.500000 *  0.500000 *  0.250000 *   0.00000    1.000000
     68 Cl    s    0.250000 *  0.000000 *  0.500000 *   0.00000    1.000000
     69 Cl    s    0.250000 *  0.750000 *  0.750000 *   0.00000    1.000000
     70 Cl    s    0.500000 *  0.000000 *  0.250000 *   0.00000    1.000000
     71 Cl    s    0.750000 *  0.250000 *  0.250000 *   0.00000    1.000000
     72 Cl    s    0.000000 *  0.500000 *  0.750000 *   0.00000    1.000000
     73 Cl    s    0.250000 *  0.500000 *  0.500000 *   0.00000    1.000000
     74 Cl    s    0.750000 *  0.000000 *  0.000000 *   0.00000    1.000000
     75 Cl    s    0.250000 *  0.500000 *  0.000000 *   0.00000    1.000000
     76 Cl    s    0.000000 *  0.000000 *  0.250000 *   0.00000    1.000000
     77 Cl    s    0.500000 *  0.500000 *  0.750000 *   0.00000    1.000000
     78 Cl    s    0.750000 *  0.000000 *  0.500000 *   0.00000    1.000000
     79 Cl    s    0.000000 *  0.250000 *  0.500000 *   0.00000    1.000000
     80 Cl    s    0.500000 *  0.750000 *  0.000000 *   0.00000    1.000000
     81 Cl    s    0.500000 *  0.250000 *  0.000000 *   0.00000    1.000000
     82 Cl    s    0.000000 *  0.750000 *  0.500000 *   0.00000    1.000000
     83 Cl    s    0.750000 *  0.250000 *  0.750000 *   0.00000    1.000000
     84 Cl    s    0.250000 *  0.750000 *  0.250000 *   0.00000    1.000000
     85 Cl    s    0.750000 *  0.750000 *  0.250000 *   0.00000    1.000000
     86 Cl    s    0.250000 *  0.250000 *  0.750000 *   0.00000    1.000000

*  General input information                                                   *

  Species output for all configurations :

  Species    Type    Atomic    Atomic    Charge       Radii (Angs)     Library
                     Number     Mass       (e)     Cova   Ionic  VDW   Symbol
    Li       Core        3       6.94   1.000000   0.680  0.000  1.800
    Sc       Core       21      44.96   3.000000   1.440  0.000  2.150
    Cl       Core       17      35.45  -1.000000   0.990  0.000  1.650
    Cl       Shell      17       0.00   0.000000   0.990  0.000  0.000

  Lattice summation method               =    Ewald          (3-D)
                                         =    Parry          (2-D)
                                         =    Saunders et al (1-D)
  Accuracy factor for lattice sums       =   12.000

  Analytic derivatives to be used

  Time limit = Infinity

!! WARNING : potential   3 is acting on the core of an ion with a shell

[...]

!! WARNING : potential   5 is acting on the core of an ion with a shell

  Maximum range for interatomic potentials =    100000.000000 Angstroms

  General interatomic potentials :

Atom  Types   Potential      Parameter       Value         Units   Cutoffs(Ang)
  1     2                                                            Min /  Max
Cl   c Cl   s Spring (c-s)  Spring k 2       36.070000    eV*Ang^-2 0.000  0.800
                            Spring k 4       0.0000000    eV*Ang^-4
Li   c Li   c Buckingham    Buckingham A     360.53000    eV        0.000 12.000
                            Buckingham rho  0.16100000    Ang
                            Buckingham C     0.0000000    eV*Ang^6
Li   c Cl   c Buckingham    Buckingham A     421.04000    eV        0.000 12.000
                            Buckingham rho  0.33400000    Ang
                            Buckingham C     0.0000000    eV*Ang^6
Cl   c Sc   c Buckingham    Buckingham A     2456.2200    eV        0.000 12.000
                            Buckingham rho  0.31470000    Ang
                            Buckingham C     0.0000000    eV*Ang^6
Cl   c Cl   c Buckingham    Buckingham A     1227.2000    eV        0.000 12.000
                            Buckingham rho  0.32100000    Ang
                            Buckingham C     14.530000    eV*Ang^6

*  Output for configuration   1                                                *

  Components of energy :

  Interatomic potentials     =          39.98465897 eV
  Monopole - monopole (real) =        -203.26936708 eV
  Monopole - monopole (recip)=        -187.00458965 eV
  Monopole - monopole (total)=        -390.27395673 eV
  Total lattice energy       =        -350.28929776 eV
  Total lattice energy       =          -33797.5626 kJ/(mole unit cells)

  Number of variables =      261

  Maximum number of calculations  =          1000
  Maximum Hessian update interval =            10
  Maximum step size               =   1.000000000
  Maximum parameter tolerance     =   0.000010000
  Maximum function  tolerance     =   0.000010000
  Maximum gradient  tolerance     =   0.001000000
  Maximum gradient  component     =   0.010000000

  Symmetry not applied to optimisation

  Cell parameters to be optimised using strains

  Newton-Raphson optimiser to be used

  BFGS hessian update to be used

  Lower half triangular hessian to be used

  Start of bulk optimisation :

  ** Hessian calculated **
  ** Hessian calculated **
  ** Hessian calculated **
  ** Hessian calculated **
  ** Hessian calculated **
  ** Hessian calculated **
  ** Hessian calculated **
  ** Hessian calculated **
  ** Hessian calculated **
[...]
     16 y          0.500000      0.653007     0.153007    Fractional  30.60
     16 z          0.000000      0.106954     0.106954    Fractional   0.00
     17 x          0.000000      0.072150     0.072150    Fractional   0.00
     17 y          0.000000      0.053583     0.053583    Fractional   0.00
     17 z          0.500000      0.411665     0.088335    Fractional  17.67
     18 x          0.250000      0.238795     0.011205    Fractional   4.48
     18 y          0.500000      0.562584     0.062584    Fractional  12.52
     18 z          0.250000      0.217247     0.032753    Fractional  13.10
     19 x          0.750000      0.744277     0.005723    Fractional   0.76
     19 y          0.500000      0.554482     0.054482    Fractional  10.90
     19 z          0.750000      0.751971     0.001971    Fractional   0.26
     20 x          0.000000      0.012212     0.012212    Fractional   0.00
     20 y          0.250000      0.290464     0.040464    Fractional  16.19
     20 z          0.750000      0.734510     0.015490    Fractional   2.07
     21 x          0.500000      0.514341     0.014341    Fractional   2.87
     21 y          0.000000      0.030547     0.030547    Fractional   0.00
     21 z          0.000000      0.975083     0.975083    Fractional   0.00
     22 x          0.750000      0.771505     0.021505    Fractional   2.87
     22 y          0.000000      0.000698     0.000698    Fractional   0.00
     22 z          0.250000      0.255615     0.005615    Fractional   2.25
     23 x          0.250000      0.267805     0.017805    Fractional   7.12
     23 y          0.250000      0.351571     0.101571    Fractional  40.63
     23 z          0.250000      0.285515     0.035515    Fractional  14.21
     24 x          0.750000      0.760917     0.010917    Fractional   1.46
     24 y          0.500000      0.573669     0.073669    Fractional  14.73
     24 z          0.500000      0.530478     0.030478    Fractional   6.10
     25 x          0.500000      0.560187     0.060187    Fractional  12.04
     25 y          0.000000      0.061881     0.061881    Fractional   0.00
     25 z          0.750000      0.757756     0.007756    Fractional   1.03
     26 x          0.000000      0.997020     0.997020    Fractional   0.00
     26 y          0.750000      0.789137     0.039137    Fractional   5.22
     26 z          0.000000      0.977727     0.977727    Fractional   0.00
     27 x          0.250000      0.302420     0.052420    Fractional  20.97
     27 y          0.000000      0.025747     0.025747    Fractional   0.00
     27 z          0.000000      0.940060     0.940060    Fractional   0.00
     28 x          0.750000      0.763564     0.013564    Fractional   1.81
     28 y          0.750000      0.778483     0.028483    Fractional   3.80
     28 z          0.750000      0.744045     0.005955    Fractional   0.79
     29 x          0.500000      0.511789     0.011789    Fractional   2.36
     29 y          0.250000      0.336637     0.086637    Fractional  34.65
     29 z          0.500000      0.465734     0.034266    Fractional   6.85
     30 x          0.000000      0.021322     0.021322    Fractional   0.00
     30 y          0.500000      0.533758     0.033758    Fractional   6.75
     30 z          0.250000      0.209827     0.040173    Fractional  16.07
     31 x          0.500000      0.495317     0.004683    Fractional   0.94
     31 y          0.750000      0.736105     0.013895    Fractional   1.85
     31 z          0.500000      0.570989     0.070989    Fractional  14.20
     32 x          0.750000      0.746136     0.003864    Fractional   0.52
     32 y          0.500000      0.568342     0.068342    Fractional  13.67
     32 z          0.000000      0.971558     0.971558    Fractional   0.00
     33 x          0.000000      0.011736     0.011736    Fractional   0.00
     33 y          0.000000      0.070062     0.070062    Fractional   0.00
     33 z          0.750000      0.774670     0.024670    Fractional   3.29
     34 x          0.000000      0.992897     0.992897    Fractional   0.00
     34 y          0.250000      0.329277     0.079277    Fractional  31.71
     34 z          0.000000      0.949008     0.949008    Fractional   0.00
     35 x          0.500000      0.457296     0.042704    Fractional   8.54
     35 y          0.500000      0.570944     0.070944    Fractional  14.19
     35 z          0.250000      0.240148     0.009852    Fractional   3.94
     36 x          0.250000      0.247268     0.002732    Fractional   1.09
     36 y          0.000000      0.026706     0.026706    Fractional   0.00
     36 z          0.500000      0.523113     0.023113    Fractional   4.62
     37 x          0.250000      0.235373     0.014627    Fractional   5.85
     37 y          0.750000      0.775922     0.025922    Fractional   3.46
     37 z          0.750000      0.733345     0.016655    Fractional   2.22
     38 x          0.500000      0.549319     0.049319    Fractional   9.86
     38 y          0.000000      0.016415     0.016415    Fractional   0.00
     38 z          0.250000      0.196420     0.053580    Fractional  21.43
     39 x          0.750000      0.747850     0.002150    Fractional   0.29
     39 y          0.250000      0.229014     0.020986    Fractional   8.39
     39 z          0.250000      0.233015     0.016985    Fractional   6.79
     40 x          0.000000      0.968291     0.968291    Fractional   0.00
     40 y          0.500000      0.523389     0.023389    Fractional   4.68
     40 z          0.750000      0.735782     0.014218    Fractional   1.90
     41 x          0.250000      0.183674     0.066326    Fractional  26.53
     41 y          0.500000      0.638031     0.138031    Fractional  27.61
     41 z          0.500000      0.423168     0.076832    Fractional  15.37
     42 x          0.750000      0.734778     0.015222    Fractional   2.03
     42 y          0.000000      0.009761     0.009761    Fractional   0.00
     42 z          0.000000      0.013414     0.013414    Fractional   0.00
     43 x          0.250000      0.263924     0.013924    Fractional   5.57
     43 y          0.500000      0.536509     0.036509    Fractional   7.30
     43 z          0.000000      0.992634     0.992634    Fractional   0.00
     44 x          0.000000      0.979527     0.979527    Fractional   0.00
     44 y          0.000000      0.072256     0.072256    Fractional   0.00
     44 z          0.250000      0.194307     0.055693    Fractional  22.28
     45 x          0.500000      0.534816     0.034816    Fractional   6.96
     45 y          0.500000      0.509872     0.009872    Fractional   1.97
     45 z          0.750000      0.777525     0.027525    Fractional   3.67
     46 x          0.750000      0.692347     0.057653    Fractional   7.69
     46 y          0.000000      0.037384     0.037384    Fractional   0.00
     46 z          0.500000      0.463569     0.036431    Fractional   7.29
     47 x          0.000000      0.027855     0.027855    Fractional   0.00
     47 y          0.250000      0.241674     0.008326    Fractional   3.33
     47 z          0.500000      0.521213     0.021213    Fractional   4.24
     48 x          0.500000      0.511540     0.011540    Fractional   2.31
     48 y          0.750000      0.806466     0.056466    Fractional   7.53
     48 z          0.000000      0.944067     0.944067    Fractional   0.00
     49 x          0.500000      0.489236     0.010764    Fractional   2.15
     49 y          0.250000      0.249935     0.000065    Fractional   0.03
     49 z          0.000000      0.014542     0.014542    Fractional   0.00
     50 x          0.000000      0.920734     0.920734    Fractional   0.00
     50 y          0.750000      0.885322     0.135322    Fractional  18.04
     50 z          0.500000      0.388074     0.111926    Fractional  22.39
     51 x          0.750000      0.790936     0.040936    Fractional   5.46
     51 y          0.250000      0.328427     0.078427    Fractional  31.37
     51 z          0.750000      0.718637     0.031363    Fractional   4.18
     52 x          0.250000      0.233898     0.016102    Fractional   6.44
     52 y          0.750000      0.783089     0.033089    Fractional   4.41
     52 z          0.250000      0.174180     0.075820    Fractional  30.33
     53 x          0.750000      0.736787     0.013213    Fractional   1.76
     53 y          0.750000      0.780751     0.030751    Fractional   4.10
     53 z          0.250000      0.206014     0.043986    Fractional  17.59
     54 x          0.250000      0.227118     0.022882    Fractional   9.15
     54 y          0.250000      0.309783     0.059783    Fractional  23.91
     54 z          0.750000      0.725128     0.024872    Fractional   3.32
     55 x          0.250000      0.267805     0.017805    Fractional   7.12
     55 y          0.250000      0.351571     0.101571    Fractional  40.63
     55 z          0.250000      0.285515     0.035515    Fractional  14.21
     56 x          0.750000      0.760917     0.010917    Fractional   1.46
     56 y          0.500000      0.573669     0.073669    Fractional  14.73
     56 z          0.500000      0.530478     0.030478    Fractional   6.10
     57 x          0.500000      0.560187     0.060187    Fractional  12.04
     57 y          0.000000      0.061881     0.061881    Fractional   0.00
     57 z          0.750000      0.757756     0.007756    Fractional   1.03
     58 x          0.000000      0.997020     0.997020    Fractional   0.00
     58 y          0.750000      0.789137     0.039137    Fractional   5.22
     58 z          0.000000      0.977727     0.977727    Fractional   0.00
     59 x          0.250000      0.302420     0.052420    Fractional  20.97
     59 y          0.000000      0.025747     0.025747    Fractional   0.00
     59 z          0.000000      0.940060     0.940060    Fractional   0.00
     60 x          0.750000      0.763564     0.013564    Fractional   1.81
     60 y          0.750000      0.778483     0.028483    Fractional   3.80
     60 z          0.750000      0.744045     0.005955    Fractional   0.79
     61 x          0.500000      0.511789     0.011789    Fractional   2.36
     61 y          0.250000      0.336637     0.086637    Fractional  34.65
     61 z          0.500000      0.465734     0.034266    Fractional   6.85
     62 x          0.000000      0.021322     0.021322    Fractional   0.00
     62 y          0.500000      0.533758     0.033758    Fractional   6.75
     62 z          0.250000      0.209827     0.040173    Fractional  16.07
     63 x          0.500000      0.495317     0.004683    Fractional   0.94
     63 y          0.750000      0.736105     0.013895    Fractional   1.85
     63 z          0.500000      0.570989     0.070989    Fractional  14.20
     64 x          0.750000      0.746136     0.003864    Fractional   0.52
     64 y          0.500000      0.568342     0.068342    Fractional  13.67
     64 z          0.000000      0.971558     0.971558    Fractional   0.00
     65 x          0.000000      0.011736     0.011736    Fractional   0.00
     65 y          0.000000      0.070062     0.070062    Fractional   0.00
     65 z          0.750000      0.774670     0.024670    Fractional   3.29
     66 x          0.000000      0.992897     0.992897    Fractional   0.00
     66 y          0.250000      0.329277     0.079277    Fractional  31.71
     66 z          0.000000      0.949008     0.949008    Fractional   0.00
     67 x          0.500000      0.457296     0.042704    Fractional   8.54
     67 y          0.500000      0.570944     0.070944    Fractional  14.19
     67 z          0.250000      0.240148     0.009852    Fractional   3.94
     68 x          0.250000      0.247268     0.002732    Fractional   1.09
     68 y          0.000000      0.026706     0.026706    Fractional   0.00
     68 z          0.500000      0.523113     0.023113    Fractional   4.62
     69 x          0.250000      0.235373     0.014627    Fractional   5.85
     69 y          0.750000      0.775922     0.025922    Fractional   3.46
     69 z          0.750000      0.733345     0.016655    Fractional   2.22
     70 x          0.500000      0.549319     0.049319    Fractional   9.86
     70 y          0.000000      0.016415     0.016415    Fractional   0.00
     70 z          0.250000      0.196420     0.053580    Fractional  21.43
     71 x          0.750000      0.747850     0.002150    Fractional   0.29
     71 y          0.250000      0.229014     0.020986    Fractional   8.39
     71 z          0.250000      0.233015     0.016985    Fractional   6.79
     72 x          0.000000      0.968291     0.968291    Fractional   0.00
     72 y          0.500000      0.523389     0.023389    Fractional   4.68
     72 z          0.750000      0.735782     0.014218    Fractional   1.90
     73 x          0.250000      0.183674     0.066326    Fractional  26.53
     73 y          0.500000      0.638031     0.138031    Fractional  27.61
     73 z          0.500000      0.423168     0.076832    Fractional  15.37
     74 x          0.750000      0.734778     0.015222    Fractional   2.03
     74 y          0.000000      0.009761     0.009761    Fractional   0.00
     74 z          0.000000      0.013414     0.013414    Fractional   0.00
     75 x          0.250000      0.263924     0.013924    Fractional   5.57
     75 y          0.500000      0.536509     0.036509    Fractional   7.30
     75 z          0.000000      0.992634     0.992634    Fractional   0.00
     76 x          0.000000      0.979527     0.979527    Fractional   0.00
     76 y          0.000000      0.072256     0.072256    Fractional   0.00
     76 z          0.250000      0.194307     0.055693    Fractional  22.28
     77 x          0.500000      0.534816     0.034816    Fractional   6.96
     77 y          0.500000      0.509872     0.009872    Fractional   1.97
     77 z          0.750000      0.777525     0.027525    Fractional   3.67
     78 x          0.750000      0.692347     0.057653    Fractional   7.69
     78 y          0.000000      0.037384     0.037384    Fractional   0.00
     78 z          0.500000      0.463569     0.036431    Fractional   7.29
     79 x          0.000000      0.027855     0.027855    Fractional   0.00
     79 y          0.250000      0.241674     0.008326    Fractional   3.33
     79 z          0.500000      0.521213     0.021213    Fractional   4.24
     80 x          0.500000      0.511540     0.011540    Fractional   2.31
     80 y          0.750000      0.806466     0.056466    Fractional   7.53
     80 z          0.000000      0.944067     0.944067    Fractional   0.00
     81 x          0.500000      0.489236     0.010764    Fractional   2.15
     81 y          0.250000      0.249934     0.000066    Fractional   0.03
     81 z          0.000000      0.014542     0.014542    Fractional   0.00
     82 x          0.000000      0.920734     0.920734    Fractional   0.00
     82 y          0.750000      0.885322     0.135322    Fractional  18.04
     82 z          0.500000      0.388074     0.111926    Fractional  22.39
     83 x          0.750000      0.790936     0.040936    Fractional   5.46
     83 y          0.250000      0.328427     0.078427    Fractional  31.37
     83 z          0.750000      0.718637     0.031363    Fractional   4.18
     84 x          0.250000      0.233898     0.016102    Fractional   6.44
     84 y          0.750000      0.783089     0.033089    Fractional   4.41
     84 z          0.250000      0.174180     0.075820    Fractional  30.33
     85 x          0.750000      0.736787     0.013213    Fractional   1.76
     85 y          0.750000      0.780751     0.030751    Fractional   4.10
     85 z          0.250000      0.206014     0.043986    Fractional  17.59
     86 x          0.250000      0.227118     0.022882    Fractional   9.15
     86 y          0.250000      0.309783     0.059783    Fractional  23.91
     86 z          0.750000      0.725128     0.024872    Fractional   3.32

  Time to end of optimisation =       3.4752 seconds

  Timing analysis for GULP :

  Task / Subroutine                                          Time (Seconds)
  Calculation of reciprocal space energy and derivatives          0.3381
  Calculation of real space energy and derivatives                3.0596
  Calculation and manipulation of Hessian matrix                  0.0017
  Calculation of matrix inversion                                 0.0491
  Global summation overhead                                       0.0002

  Dump file written as halospinel.grs

  **** GULP has completed with   3 warnings - beware! ****

  Job Finished at 14:26.33  7th March      2022