  Job Started  at 18:43.41  7th February   2022

  Number of CPUs =     1

  Total number of configurations input =      1

*  Input for Configuration =   1                                               *

  Formula = Sc2Cl6

  Number of irreducible atoms/shells =      14

  Total number atoms/shells =      14

  Dimensionality = 3               :  Bulk

  Cartesian lattice vectors (Angstroms) :

        7.453000    0.000000    0.000000
        4.624520    5.844744    0.000000
        4.624520    2.237970    5.399307

  Cell parameters (Angstroms/Degrees):

  a =       7.4530    alpha =  51.6480
  b =       7.4530    beta  =  51.6480
  c =       7.4530    gamma =  51.6480

  Initial cell volume =         235.198534 Angs**3

  Temperature of configuration =   0.00     K

  Pressure of configuration =         0.000 GPa

  Fractional coordinates of asymmetric unit :

   No.  Atomic       x           y          z         Charge      Occupancy
        Label      (Frac)      (Frac)     (Frac)        (e)         (Frac)
      1 Sc    c    0.333900    0.333900    0.333900     3.00000    1.000000
      2 Sc    c    0.666100 *  0.666100 *  0.666100 *   3.00000    1.000000
      3 Cl    c    0.073700 *  0.443900 *  0.705300 *   1.48500    1.000000
      4 Cl    c    0.294700 *  0.926300 *  0.556100 *   1.48500    1.000000
      5 Cl    c    0.443900 *  0.705300 *  0.073700 *   1.48500    1.000000
      6 Cl    c    0.556100 *  0.294700 *  0.926300 *   1.48500    1.000000
      7 Cl    c    0.705300 *  0.073700 *  0.443900 *   1.48500    1.000000
      8 Cl    c    0.926300 *  0.556100 *  0.294700 *   1.48500    1.000000
      9 Cl    s    0.073700 *  0.443900 *  0.705300 *  -2.48500    1.000000
     10 Cl    s    0.294700 *  0.926300 *  0.556100 *  -2.48500    1.000000
     11 Cl    s    0.443900 *  0.705300 *  0.073700 *  -2.48500    1.000000
     12 Cl    s    0.556100 *  0.294700 *  0.926300 *  -2.48500    1.000000
     13 Cl    s    0.705300 *  0.073700 *  0.443900 *  -2.48500    1.000000
     14 Cl    s    0.926300 *  0.556100 *  0.294700 *  -2.48500    1.000000

*  General input information                                                   *

  Species output for all configurations :

  Species    Type    Atomic    Atomic    Charge       Radii (Angs)     Library
                     Number     Mass       (e)     Cova   Ionic  VDW   Symbol
    Sc       Core       21      44.96   3.000000   1.440  0.000  2.150
    Cl       Core       17      35.45   1.485000   0.990  0.000  1.650
    Cl       Shell      17       0.00  -2.485000   0.990  0.000  1.650

  Lattice summation method               =    Ewald          (3-D)
                                         =    Parry          (2-D)
                                         =    Saunders et al (1-D)
  Accuracy factor for lattice sums       =   12.000

  Analytic derivatives to be used

  Time limit = Infinity

  Maximum range for interatomic potentials =    100000.000000 Angstroms

  General interatomic potentials :

Atom  Types   Potential      Parameter       Value         Units   Cutoffs(Ang)
  1     2                                                            Min /  Max
Cl   c Cl   s Spring (c-s)  Spring k 2       36.070000    eV*Ang^-2 0.000  0.800
                            Spring k 4       0.0000000    eV*Ang^-4
Sc   c Cl   s Buckingham    Buckingham A     2456.2200    eV        0.000 12.000
                            Buckingham rho  0.31470000    Ang
                            Buckingham C     0.0000000    eV*Ang^6
Cl   s Cl   s Buckingham    Buckingham A     1227.2000    eV        0.000 12.000
                            Buckingham rho  0.32100000    Ang
                            Buckingham C     14.530000    eV*Ang^6

*  Output for configuration   1                                                *

  Components of energy :

  Interatomic potentials     =          10.39244711 eV
  Monopole - monopole (real) =         -30.86300284 eV
  Monopole - monopole (recip)=         -65.52201623 eV
  Monopole - monopole (total)=         -96.38501907 eV
  Total lattice energy       =         -85.99257196 eV
  Total lattice energy       =           -8296.9687 kJ/(mole unit cells)

  Number of variables =       45

  Maximum number of calculations  =          1000
  Maximum Hessian update interval =            10
  Maximum step size               =   1.000000000
  Maximum parameter tolerance     =   0.000010000
  Maximum function  tolerance     =   0.000010000
  Maximum gradient  tolerance     =   0.001000000
  Maximum gradient  component     =   0.010000000

  Symmetry not applied to optimisation

  Cell parameters to be optimised using strains

  Newton-Raphson optimiser to be used

  BFGS hessian update to be used

  Lower half triangular hessian to be used

  Start of bulk optimisation :

  ** Hessian calculated **
  ** Hessian calculated **
  ** Hessian calculated **

  **** Optimisation achieved ****

  Final energy =     -94.18617309 eV
  Final Gnorm  =       0.00026742

  Components of energy :

  Interatomic potentials     =          21.32396821 eV
  Monopole - monopole (real) =          81.06426209 eV
  Monopole - monopole (recip)=        -196.57440339 eV
  Monopole - monopole (total)=        -115.51014130 eV
  Total lattice energy       =         -94.18617309 eV
  Total lattice energy       =           -9087.5259 kJ/(mole unit cells)

  Final fractional coordinates of atoms :

   No.  Atomic        x           y          z          Radius
        Label       (Frac)      (Frac)     (Frac)       (Angs)
     1  Sc    c     0.333900    0.333900    0.333900    0.000000
     2  Sc    c     0.667797    0.667813    0.667799    0.000000
     3  Cl    c     0.075682    0.445383    0.703391    0.000000
     4  Cl    c     0.297892    0.926501    0.556250    0.000000
     5  Cl    c     0.445899    0.703300    0.075286    0.000000
     6  Cl    c     0.555797    0.298410    0.926421    0.000000
     7  Cl    c     0.703804    0.075207    0.445450    0.000000
     8  Cl    c     0.926009    0.556319    0.298315    0.000000
     9  Cl    s     0.065947    0.452571    0.677260    0.000000
    10  Cl    s     0.324076    0.936176    0.549072    0.000000
    11  Cl    s     0.453018    0.677183    0.065599    0.000000
    12  Cl    s     0.548677    0.324526    0.936109    0.000000
    13  Cl    s     0.677621    0.065531    0.452629    0.000000
    14  Cl    s     0.935746    0.549133    0.324445    0.000000

  Final Cartesian lattice vectors (Angstroms) :

        7.492716    0.017674    0.015750
        4.666685    5.870017    0.017236
        4.663123    2.258191    5.420142

  Final cell parameters and derivatives :

       a            7.492753 Angstrom     dE/de1(xx)     0.001502 eV/strain
       b            7.499023 Angstrom     dE/de2(yy)     0.001130 eV/strain
       c            7.498139 Angstrom     dE/de3(zz)     0.001402 eV/strain
       alpha       51.360329 Degrees      dE/de4(yz)     0.000184 eV/strain
       beta        51.381576 Degrees      dE/de5(xz)     0.000594 eV/strain
       gamma       51.379896 Degrees      dE/de6(xy)     0.000958 eV/strain

  Primitive cell volume =           237.388320 Angs**3

  Density of cell =      2.116870 g/cm**3

  Non-primitive cell volume =           237.388320 Angs**3

  Final internal derivatives :

   No.  Atomic          a             b             c           Radius
        Label          (eV)          (eV)          (eV)        (eV/Angs)
      1 Sc    c       0.000000      0.000000      0.000000      0.000000
      2 Sc    c       0.001681      0.001454      0.000124      0.000000
      3 Cl    c      -0.002719     -0.000640     -0.000937      0.000000
      4 Cl    c       0.000986      0.001285      0.000118      0.000000
      5 Cl    c       0.001446      0.000724      0.001502      0.000000
      6 Cl    c      -0.000978      0.000527     -0.000482      0.000000
      7 Cl    c      -0.001726     -0.001514     -0.000663      0.000000
      8 Cl    c       0.000842     -0.000977      0.000232      0.000000
      9 Cl    s       0.003561      0.001253      0.002922      0.000000
     10 Cl    s      -0.002865     -0.003016     -0.001029      0.000000
     11 Cl    s       0.001191      0.003381      0.002375      0.000000
     12 Cl    s      -0.001348     -0.004134     -0.001709      0.000000
     13 Cl    s       0.002463      0.001978      0.000726      0.000000
     14 Cl    s      -0.002693     -0.000158     -0.002951      0.000000
  Maximum abs         0.003561      0.004134      0.002951      0.000000

  Comparison of initial and final structures :

  Parameter   Initial value   Final value   Difference    Units      Percent
    Volume       235.198534    237.388320     2.189785    Angs**3      0.93
    a              7.453000      7.492753     0.039753    Angstroms    0.53
    b              7.453000      7.499023     0.046023    Angstroms    0.62
    c              7.453000      7.498139     0.045139    Angstroms    0.61
    alpha         51.648000     51.360329    -0.287671    Degrees     -0.56
    beta          51.648000     51.381576    -0.266424    Degrees     -0.52
    gamma         51.648000     51.379896    -0.268104    Degrees     -0.52
      1 x          0.333900      0.333900     0.000000    Fractional   0.00
      1 y          0.333900      0.333900     0.000000    Fractional   0.00
      1 z          0.333900      0.333900     0.000000    Fractional   0.00
      2 x          0.666100      0.667797     0.001697    Fractional   0.25
      2 y          0.666100      0.667813     0.001713    Fractional   0.26
      2 z          0.666100      0.667799     0.001699    Fractional   0.25
      3 x          0.073700      0.075682     0.001982    Fractional   2.69
      3 y          0.443900      0.445383     0.001483    Fractional   0.33
      3 z          0.705300      0.703391     0.001909    Fractional   0.27
      4 x          0.294700      0.297892     0.003192    Fractional   1.08
      4 y          0.926300      0.926501     0.000201    Fractional   0.02
      4 z          0.556100      0.556250     0.000150    Fractional   0.03
      5 x          0.443900      0.445899     0.001999    Fractional   0.45
      5 y          0.705300      0.703300     0.002000    Fractional   0.28
      5 z          0.073700      0.075286     0.001586    Fractional   2.15
      6 x          0.556100      0.555797     0.000303    Fractional   0.05
      6 y          0.294700      0.298410     0.003710    Fractional   1.26
      6 z          0.926300      0.926421     0.000121    Fractional   0.01
      7 x          0.705300      0.703804     0.001496    Fractional   0.21
      7 y          0.073700      0.075207     0.001507    Fractional   2.04
      7 z          0.443900      0.445450     0.001550    Fractional   0.35
      8 x          0.926300      0.926009     0.000291    Fractional   0.03
      8 y          0.556100      0.556319     0.000219    Fractional   0.04
      8 z          0.294700      0.298315     0.003615    Fractional   1.23
      9 x          0.073700      0.065947     0.007753    Fractional  10.52
[...]
    936 x         -4.561598     -4.556179     0.005419    Cartesian   -0.12
    936 y          2.798165      2.802004     0.003840    Cartesian    0.14
    936 z         14.471232     14.466979    -0.004253    Cartesian   -0.03
    937 x         16.090141     16.081145    -0.008997    Cartesian   -0.06
    937 y          5.576131      5.573853    -0.002278    Cartesian   -0.04
    937 z         -7.111865     -7.106108     0.005757    Cartesian   -0.08
    938 x         -1.836112     -1.835312     0.000800    Cartesian   -0.04
    938 y         -6.709444     -6.703287     0.006156    Cartesian   -0.09
    938 z         -2.972264     -2.966322     0.005942    Cartesian   -0.20
    939 x         -5.658205     -5.656332     0.001873    Cartesian   -0.03
    939 y          5.882125      5.880564    -0.001561    Cartesian   -0.03
    939 z         13.258149     13.252696    -0.005453    Cartesian   -0.04
    940 x          5.026901      5.024541    -0.002360    Cartesian   -0.05
    940 y         -0.367488     -0.367464     0.000024    Cartesian   -0.01
    940 z        -10.450171    -10.443165     0.007005    Cartesian   -0.07
    941 x         13.264110     13.260009    -0.004101    Cartesian   -0.03
    941 y         11.428475     11.424002    -0.004473    Cartesian   -0.04
    941 z         -7.110379     -7.106947     0.003432    Cartesian   -0.05
    942 x         -7.488174     -7.485818     0.002357    Cartesian   -0.03
    942 y          4.995244      4.996220     0.000976    Cartesian    0.02
    942 z         -2.969292     -2.963985     0.005307    Cartesian   -0.18
    943 x          6.753211      6.752083    -0.001128    Cartesian   -0.02
    943 y         -9.775730     -9.768848     0.006883    Cartesian   -0.07
    943 z         -1.743431     -1.742679     0.000752    Cartesian   -0.04
    944 x         -2.794843     -2.792997     0.001846    Cartesian   -0.07
    944 y          8.076969      8.076509    -0.000460    Cartesian   -0.01
    944 z         -7.841510     -7.832230     0.009280    Cartesian   -0.12
    945 x         18.583111     18.578360    -0.004751    Cartesian   -0.03
    945 y          7.602115      7.598359    -0.003756    Cartesian   -0.05
    945 z         -3.604417     -3.599397     0.005019    Cartesian   -0.14
    946 x         -3.790904     -3.797224    -0.006320    Cartesian    0.17
    946 y         14.816194     14.823779     0.007586    Cartesian    0.05
    946 z          8.387417      8.389369     0.001952    Cartesian    0.02
    947 x         10.983229     10.986604     0.003375    Cartesian    0.03
    947 y         -6.322470     -6.328541    -0.006071    Cartesian    0.10
    947 z         -5.737942     -5.745003    -0.007061    Cartesian    0.12
    948 x         -3.569098     -3.565281     0.003817    Cartesian   -0.11
    948 y         -7.552887     -7.545657     0.007229    Cartesian   -0.10
    948 z          3.645212      3.640839    -0.004373    Cartesian   -0.12
    949 x         19.012711     19.010132    -0.002578    Cartesian   -0.01
    949 y          2.795257      2.797766     0.002510    Cartesian    0.09
    949 z         11.213161     11.211344    -0.001818    Cartesian   -0.02
    950 x         19.679744     19.676928    -0.002816    Cartesian   -0.01
    950 y          4.518163      4.517706    -0.000456    Cartesian   -0.01
    950 z         -2.391354     -2.391254     0.000100    Cartesian   -0.00
    951 x         -3.905720     -3.903007     0.002713    Cartesian   -0.07
    951 y         -3.286386     -3.282659     0.003727    Cartesian   -0.11
    951 z         12.557053     12.553637    -0.003415    Cartesian   -0.03
    952 x          6.756772      6.753673    -0.003099    Cartesian   -0.05
    952 y         -6.163904     -6.158743     0.005161    Cartesian   -0.08
    952 z         -7.146337     -7.142875     0.003462    Cartesian   -0.05
    953 x         -9.221160     -9.216156     0.005005    Cartesian   -0.05
    953 y          4.151801      4.154193     0.002392    Cartesian    0.06
    953 z          3.648184      3.644230    -0.003954    Cartesian   -0.11
    954 x         -4.550914     -4.549493     0.001421    Cartesian   -0.03
    954 y         13.633645     13.627270    -0.006375    Cartesian   -0.05
    954 z         -1.737487     -1.736635     0.000851    Cartesian   -0.05
    955 x         -0.957750     -0.958099    -0.000349    Cartesian    0.04
    955 y         16.187503     16.188431     0.000928    Cartesian    0.01
    955 z         -2.419882     -2.412441     0.007440    Cartesian   -0.31
    956 x         20.313037     20.305795    -0.007242    Cartesian   -0.04
    956 y          1.805738      1.809844     0.004107    Cartesian    0.23
    956 z         -0.300564     -0.300190     0.000375    Cartesian   -0.12
    957 x          8.160759      8.165388     0.004629    Cartesian    0.06
    957 y          3.141700      3.136074    -0.005626    Cartesian   -0.18
    957 z        -11.139362    -11.135684     0.003678    Cartesian   -0.03
    958 x         -1.721322     -1.720530     0.000792    Cartesian   -0.05
    958 y         11.393128     11.386996    -0.006131    Cartesian   -0.05
    958 z         -7.141879     -7.137811     0.004068    Cartesian   -0.06
    959 x         13.919988     13.914401    -0.005587    Cartesian   -0.04
    959 y          5.343924      5.340141    -0.003784    Cartesian   -0.07
    959 z         -9.024559     -9.021988     0.002571    Cartesian   -0.03
    960 x         -3.561975     -3.558341     0.003635    Cartesian   -0.10
    960 y         -0.329233     -0.326290     0.002943    Cartesian   -0.89
    960 z         -7.160601     -7.159163     0.001437    Cartesian   -0.02
    961 x         11.198089     11.197783    -0.000306    Cartesian   -0.00
    961 y         18.463367     18.457582    -0.005786    Cartesian   -0.03
    961 z          3.016010      3.012690    -0.003320    Cartesian   -0.11
    962 x          8.250119      8.251817     0.001698    Cartesian    0.02
    962 y         -1.010521     -1.007154     0.003367    Cartesian   -0.33
    962 z         17.992944     17.987600    -0.005345    Cartesian   -0.03
    963 x          9.323666      9.321667    -0.001999    Cartesian   -0.02
    963 y          2.305645      2.305279    -0.000366    Cartesian   -0.02
    963 z         18.692555     18.684689    -0.007865    Cartesian   -0.04
    964 x          2.850098      2.850083    -0.000015    Cartesian   -0.00
    964 y        -10.851372    -10.842608     0.008763    Cartesian   -0.08
    964 z          2.961330      2.964653     0.003323    Cartesian    0.11
    965 x         -7.824296     -7.814310     0.009986    Cartesian   -0.13
    965 y          6.233751      6.230873    -0.002878    Cartesian   -0.05
    965 z         10.460971     10.457162    -0.003809    Cartesian   -0.04
    966 x          6.497635      6.496125    -0.001510    Cartesian   -0.02
    966 y          8.157989      8.155306    -0.002683    Cartesian   -0.03
    966 z         18.694041     18.686356    -0.007685    Cartesian   -0.04
    967 x         -7.495297     -7.492201     0.003096    Cartesian   -0.04
    967 y         -2.228410     -2.225838     0.002572    Cartesian   -0.12
    967 z          7.836521      7.836297    -0.000224    Cartesian   -0.00
    968 x         15.642791     15.637745    -0.005046    Cartesian   -0.03
    968 y         -7.676106     -7.673659     0.002447    Cartesian   -0.03
    968 z          5.085106      5.083940    -0.001166    Cartesian   -0.02
    969 x         15.757080     15.752588    -0.004492    Cartesian   -0.03
    969 y         13.454459     13.448116    -0.006343    Cartesian   -0.05
    969 z         -3.602931     -3.597475     0.005455    Cartesian   -0.15
    970 x         -6.731752     -6.724303     0.007448    Cartesian   -0.11
    970 y          2.565958      2.568337     0.002379    Cartesian    0.09
    970 z         12.558539     12.552730    -0.005808    Cartesian   -0.05
    971 x          1.830950      1.829373    -0.001577    Cartesian   -0.09
    971 y          2.287972      2.288055     0.000083    Cartesian    0.00
    971 z         18.676805     18.669219    -0.007586    Cartesian   -0.04
    972 x          2.186625      2.184613    -0.002012    Cartesian   -0.09
    972 y         -8.962451     -8.958881     0.003570    Cartesian   -0.04
    972 z         11.162940     11.158322    -0.004618    Cartesian   -0.04
    973 x          9.679341      9.674756    -0.004585    Cartesian   -0.05
    973 y         -8.944778     -8.940570     0.004208    Cartesian   -0.05
    973 z         11.178690     11.173807    -0.004883    Cartesian   -0.04
    974 x         16.843029     16.841212    -0.001818    Cartesian   -0.01
    974 y         -0.464973     -0.465040    -0.000066    Cartesian    0.01
    974 z         13.818850     13.812958    -0.005892    Cartesian   -0.04
    975 x         11.093956     11.091399    -0.002557    Cartesian   -0.02
    975 y         11.196268     11.191528    -0.004740    Cartesian   -0.04
    975 z         -9.023073     -9.020511     0.002562    Cartesian   -0.03
    976 x          5.016218      5.012159    -0.004059    Cartesian   -0.08
    976 y        -11.202968    -11.196290     0.006678    Cartesian   -0.06
    976 z          5.758548      5.755684    -0.002863    Cartesian   -0.05
    977 x         16.742458     16.739072    -0.003386    Cartesian   -0.02
    977 y         -4.120246     -4.116716     0.003530    Cartesian   -0.09
    977 z         -3.623139     -3.620793     0.002346    Cartesian   -0.06
    978 x         -3.794465     -3.799280    -0.004815    Cartesian    0.13
    978 y         11.204367     11.202759    -0.001608    Cartesian   -0.01
    978 z         13.790323     13.787078    -0.003245    Cartesian   -0.02
    979 x          6.520721      6.519295    -0.001426    Cartesian   -0.02
    979 y          1.757870      1.756170    -0.001700    Cartesian   -0.10
    979 z         19.207493     19.201760    -0.005733    Cartesian   -0.03
    980 x          9.364558      9.364561     0.000003    Cartesian    0.00
    980 y         13.964660     13.960963    -0.003697    Cartesian   -0.03
    980 z         -7.808524     -7.805425     0.003099    Cartesian   -0.04
    981 x         10.979668     10.974522    -0.005146    Cartesian   -0.05
    981 y         -9.934297     -9.935484    -0.001188    Cartesian    0.01
    981 z         -0.335036     -0.338014    -0.002978    Cartesian    0.89
    982 x          9.001789      9.000925    -0.000864    Cartesian   -0.01
    982 y         17.991459     17.988632    -0.002828    Cartesian   -0.02
    982 z         10.511192     10.509378    -0.001814    Cartesian   -0.02
    983 x         20.309476     20.301487    -0.007988    Cartesian   -0.04
    983 y         -1.806089     -1.800616     0.005472    Cartesian   -0.30
    983 z          5.102342      5.100855    -0.001487    Cartesian   -0.03
    984 x         -3.161172     -3.159992     0.001180    Cartesian   -0.04
    984 y          8.491942      8.491345    -0.000597    Cartesian   -0.01
    984 z         15.881113     15.875910    -0.005203    Cartesian   -0.03
    985 x         10.342814     10.340383    -0.002431    Cartesian   -0.02
    985 y        -10.833698    -10.829176     0.004522    Cartesian   -0.04
    985 z          2.977080      2.975354    -0.001726    Cartesian   -0.06
    986 x          1.871842      1.870957    -0.000885    Cartesian   -0.05
    986 y         13.946986     13.943342    -0.003645    Cartesian   -0.03
    986 z         -7.824274     -7.822138     0.002136    Cartesian   -0.03
    987 x          5.334727      5.333077    -0.001651    Cartesian   -0.03
    987 y          8.994044      8.991753    -0.002291    Cartesian   -0.03
    987 z        -11.137876    -11.134485     0.003391    Cartesian   -0.03
    988 x          4.342227      4.346457     0.004230    Cartesian    0.10
    988 y         19.345095     19.338253    -0.006843    Cartesian   -0.04
    988 z         -0.311856     -0.309293     0.002562    Cartesian   -0.82
    989 x         14.027682     14.027292    -0.000390    Cartesian   -0.00
    989 y         16.222850     16.218697    -0.004153    Cartesian   -0.03
    989 z         -2.388382     -2.389012    -0.000630    Cartesian    0.03
    990 x         -6.831796     -6.830204     0.001592    Cartesian   -0.02
    990 y         -4.117300     -4.118753    -0.001453    Cartesian    0.04
    990 z         -0.365049     -0.364617     0.000432    Cartesian   -0.12
    991 x         12.176345     12.174521    -0.001823    Cartesian   -0.01
    991 y         -6.334991     -6.331545     0.003446    Cartesian   -0.05
    991 z         13.801614     13.798117    -0.003498    Cartesian   -0.03
    992 x         -8.457589     -8.456131     0.001458    Cartesian   -0.02
    992 y          8.946176      8.943119    -0.003058    Cartesian   -0.03
    992 z          8.370181      8.368153    -0.002028    Cartesian   -0.02
    993 x         -7.465088     -7.465583    -0.000495    Cartesian    0.01
    993 y         -1.404875     -1.404641     0.000234    Cartesian   -0.02
    993 z         -2.455839     -2.452551     0.003288    Cartesian   -0.13
    994 x         14.993535     14.991626    -0.001908    Cartesian   -0.01
    994 y          8.660091      8.659663    -0.000428    Cartesian   -0.00
    994 z         -8.324948     -8.321018     0.003930    Cartesian   -0.05
    995 x         12.916804     12.915548    -0.001256    Cartesian   -0.01
    995 y          4.859496      4.859521     0.000025    Cartesian    0.00
    995 z         18.010180     18.006985    -0.003195    Cartesian   -0.02
    996 x          3.694690      3.693934    -0.000756    Cartesian   -0.02
    996 y          7.610214      7.606070    -0.004144    Cartesian   -0.05
    996 z         19.208979     19.201793    -0.007186    Cartesian   -0.04
    997 x          1.509073      1.514799     0.005726    Cartesian    0.38
    997 y         17.973786     17.967520    -0.006266    Cartesian   -0.03
    997 z         10.495443     10.493008    -0.002435    Cartesian   -0.02
    998 x          2.598056      2.600756     0.002700    Cartesian    0.10
    998 y         10.694166     10.692516    -0.001650    Cartesian   -0.02
    998 z         17.995917     17.991417    -0.004500    Cartesian   -0.03
    999 x          0.757403      0.762183     0.004780    Cartesian    0.63
    999 y         -1.028195     -1.024605     0.003590    Cartesian   -0.35
    999 z         17.977195     17.971858    -0.005337    Cartesian   -0.03
   1000 x          6.413027      6.415366     0.002339    Cartesian    0.04
   1000 y         -9.121056     -9.114035     0.007021    Cartesian   -0.08
   1000 z         12.571316     12.568351    -0.002965    Cartesian   -0.02
   1001 x         -3.454754     -3.444776     0.009978    Cartesian   -0.29
   1001 y         13.577716     13.569668    -0.008048    Cartesian   -0.06
   1001 z         -5.042806     -5.038394     0.004412    Cartesian   -0.09
   1002 x         19.672622     19.670769    -0.001853    Cartesian   -0.01
   1002 y         -2.705490     -2.704235     0.001256    Cartesian   -0.05
   1002 z          8.414458      8.410842    -0.003616    Cartesian   -0.04
   1003 x          8.998228      8.996865    -0.001363    Cartesian   -0.02
   1003 y         14.379633     14.378014    -0.001619    Cartesian   -0.01
   1003 z         15.914099     15.910456    -0.003643    Cartesian   -0.02
   1004 x          7.171819      7.174223     0.002404    Cartesian    0.03
   1004 y         17.104578     17.100602    -0.003976    Cartesian   -0.02
   1004 z         -5.716248     -5.711672     0.004576    Cartesian   -0.08
   1005 x         10.090772     10.089871    -0.000902    Cartesian   -0.01
   1005 y         10.711840     10.709664    -0.002175    Cartesian   -0.02
   1005 z         18.011666     18.008519    -0.003147    Cartesian   -0.02

  Time to end of optimisation  =      336.7851 seconds

  Timing analysis for GULP :

  Task / Subroutine                                          Time (Seconds)
  Calculation of reciprocal space energy and derivatives          0.0087
  Calculation of real space energy and derivatives                0.2230
  Calculation for region 1 energy and derivatives (2-b)         132.2613
  Calculation for region 2a energy                              140.5547
  Calculation for region 2b energy                                0.0267
  Calculation and manipulation of Hessian matrix                  0.0401
  Calculation of matrix inversion                                62.4391

  Dump file written as ScCl3.grs

  **** GULP has completed with   2 warnings - beware! ****

  Job Finished at 18:49.25  7th February   2022