  Job Started  at 18:43.41  7th February   2022

  Number of CPUs =     1

  Total number of configurations input =      1

*  Input for Configuration =   1                                               *

  Formula = Sc2Cl6

  Number of irreducible atoms/shells =      14

  Total number atoms/shells =      14

  Dimensionality = 3               :  Bulk

  Cartesian lattice vectors (Angstroms) :

        7.453000    0.000000    0.000000
        4.624520    5.844744    0.000000
        4.624520    2.237970    5.399307

  Cell parameters (Angstroms/Degrees):

  a =       7.4530    alpha =  51.6480
  b =       7.4530    beta  =  51.6480
  c =       7.4530    gamma =  51.6480

  Initial cell volume =         235.198534 Angs**3

  Temperature of configuration =   0.00     K

  Pressure of configuration =         0.000 GPa

  Fractional coordinates of asymmetric unit :

   No.  Atomic       x           y          z         Charge      Occupancy
        Label      (Frac)      (Frac)     (Frac)        (e)         (Frac)
      1 Sc    c    0.333900    0.333900    0.333900     3.00000    1.000000
      2 Sc    c    0.666100 *  0.666100 *  0.666100 *   3.00000    1.000000
      3 Cl    c    0.073700 *  0.443900 *  0.705300 *   1.48500    1.000000
      4 Cl    c    0.294700 *  0.926300 *  0.556100 *   1.48500    1.000000
      5 Cl    c    0.443900 *  0.705300 *  0.073700 *   1.48500    1.000000
      6 Cl    c    0.556100 *  0.294700 *  0.926300 *   1.48500    1.000000
      7 Cl    c    0.705300 *  0.073700 *  0.443900 *   1.48500    1.000000
      8 Cl    c    0.926300 *  0.556100 *  0.294700 *   1.48500    1.000000
      9 Cl    s    0.073700 *  0.443900 *  0.705300 *  -2.48500    1.000000
     10 Cl    s    0.294700 *  0.926300 *  0.556100 *  -2.48500    1.000000
     11 Cl    s    0.443900 *  0.705300 *  0.073700 *  -2.48500    1.000000
     12 Cl    s    0.556100 *  0.294700 *  0.926300 *  -2.48500    1.000000
     13 Cl    s    0.705300 *  0.073700 *  0.443900 *  -2.48500    1.000000
     14 Cl    s    0.926300 *  0.556100 *  0.294700 *  -2.48500    1.000000

*  General input information                                                   *

  Species output for all configurations :

  Species    Type    Atomic    Atomic    Charge       Radii (Angs)     Library
                     Number     Mass       (e)     Cova   Ionic  VDW   Symbol
    Sc       Core       21      44.96   3.000000   1.440  0.000  2.150
    Cl       Core       17      35.45   1.485000   0.990  0.000  1.650
    Cl       Shell      17       0.00  -2.485000   0.990  0.000  1.650

  Lattice summation method               =    Ewald          (3-D)
                                         =    Parry          (2-D)
                                         =    Saunders et al (1-D)
  Accuracy factor for lattice sums       =   12.000

  Analytic derivatives to be used

  Time limit = Infinity

  Maximum range for interatomic potentials =    100000.000000 Angstroms

  General interatomic potentials :

Atom  Types   Potential      Parameter       Value         Units   Cutoffs(Ang)
  1     2                                                            Min /  Max
Cl   c Cl   s Spring (c-s)  Spring k 2       36.070000    eV*Ang^-2 0.000  0.800
                            Spring k 4       0.0000000    eV*Ang^-4
Sc   c Cl   s Buckingham    Buckingham A     2456.2200    eV        0.000 12.000
                            Buckingham rho  0.31470000    Ang
                            Buckingham C     0.0000000    eV*Ang^6
Cl   s Cl   s Buckingham    Buckingham A     1227.2000    eV        0.000 12.000
                            Buckingham rho  0.32100000    Ang
                            Buckingham C     14.530000    eV*Ang^6

*  Output for configuration   1                                                *

  Components of energy :

  Interatomic potentials     =          10.39244711 eV
  Monopole - monopole (real) =         -30.86300284 eV
  Monopole - monopole (recip)=         -65.52201623 eV
  Monopole - monopole (total)=         -96.38501907 eV
  Total lattice energy       =         -85.99257196 eV
  Total lattice energy       =           -8296.9687 kJ/(mole unit cells)

  Number of variables =       45

  Maximum number of calculations  =          1000
  Maximum Hessian update interval =            10
  Maximum step size               =   1.000000000
  Maximum parameter tolerance     =   0.000010000
  Maximum function  tolerance     =   0.000010000
  Maximum gradient  tolerance     =   0.001000000
  Maximum gradient  component     =   0.010000000

  Symmetry not applied to optimisation

  Cell parameters to be optimised using strains

  Newton-Raphson optimiser to be used

  BFGS hessian update to be used

  Lower half triangular hessian to be used

  Start of bulk optimisation :

  ** Hessian calculated **
  ** Hessian calculated **
  ** Hessian calculated **

  **** Optimisation achieved ****

  Final energy =     -94.18617309 eV
  Final Gnorm  =       0.00026742

  Components of energy :

  Interatomic potentials     =          21.32396821 eV
  Monopole - monopole (real) =          81.06426209 eV
  Monopole - monopole (recip)=        -196.57440339 eV
  Monopole - monopole (total)=        -115.51014130 eV
  Total lattice energy       =         -94.18617309 eV
  Total lattice energy       =           -9087.5259 kJ/(mole unit cells)

  Final fractional coordinates of atoms :

   No.  Atomic        x           y          z          Radius
        Label       (Frac)      (Frac)     (Frac)       (Angs)
     1  Sc    c     0.333900    0.333900    0.333900    0.000000
     2  Sc    c     0.667797    0.667813    0.667799    0.000000
     3  Cl    c     0.075682    0.445383    0.703391    0.000000
     4  Cl    c     0.297892    0.926501    0.556250    0.000000
     5  Cl    c     0.445899    0.703300    0.075286    0.000000
     6  Cl    c     0.555797    0.298410    0.926421    0.000000
     7  Cl    c     0.703804    0.075207    0.445450    0.000000
     8  Cl    c     0.926009    0.556319    0.298315    0.000000
     9  Cl    s     0.065947    0.452571    0.677260    0.000000
    10  Cl    s     0.324076    0.936176    0.549072    0.000000
    11  Cl    s     0.453018    0.677183    0.065599    0.000000
    12  Cl    s     0.548677    0.324526    0.936109    0.000000
    13  Cl    s     0.677621    0.065531    0.452629    0.000000
    14  Cl    s     0.935746    0.549133    0.324445    0.000000

  Final Cartesian lattice vectors (Angstroms) :

        7.492716    0.017674    0.015750
        4.666685    5.870017    0.017236
        4.663123    2.258191    5.420142

  Final cell parameters and derivatives :

       a            7.492753 Angstrom     dE/de1(xx)     0.001502 eV/strain
       b            7.499023 Angstrom     dE/de2(yy)     0.001130 eV/strain
       c            7.498139 Angstrom     dE/de3(zz)     0.001402 eV/strain
       alpha       51.360329 Degrees      dE/de4(yz)     0.000184 eV/strain
       beta        51.381576 Degrees      dE/de5(xz)     0.000594 eV/strain
       gamma       51.379896 Degrees      dE/de6(xy)     0.000958 eV/strain

  Primitive cell volume =           237.388320 Angs**3

  Density of cell =      2.116870 g/cm**3

  Non-primitive cell volume =           237.388320 Angs**3

  Final internal derivatives :

   No.  Atomic          a             b             c           Radius
        Label          (eV)          (eV)          (eV)        (eV/Angs)
      1 Sc    c       0.000000      0.000000      0.000000      0.000000
      2 Sc    c       0.001681      0.001454      0.000124      0.000000
      3 Cl    c      -0.002719     -0.000640     -0.000937      0.000000
      4 Cl    c       0.000986      0.001285      0.000118      0.000000
      5 Cl    c       0.001446      0.000724      0.001502      0.000000
      6 Cl    c      -0.000978      0.000527     -0.000482      0.000000
      7 Cl    c      -0.001726     -0.001514     -0.000663      0.000000
      8 Cl    c       0.000842     -0.000977      0.000232      0.000000
      9 Cl    s       0.003561      0.001253      0.002922      0.000000
     10 Cl    s      -0.002865     -0.003016     -0.001029      0.000000
     11 Cl    s       0.001191      0.003381      0.002375      0.000000
     12 Cl    s      -0.001348     -0.004134     -0.001709      0.000000
     13 Cl    s       0.002463      0.001978      0.000726      0.000000
     14 Cl    s      -0.002693     -0.000158     -0.002951      0.000000
  Maximum abs         0.003561      0.004134      0.002951      0.000000

  Comparison of initial and final structures :

  Parameter   Initial value   Final value   Difference    Units      Percent
    Volume       235.198534    237.388320     2.189785    Angs**3      0.93
    a              7.453000      7.492753     0.039753    Angstroms    0.53
    b              7.453000      7.499023     0.046023    Angstroms    0.62
    c              7.453000      7.498139     0.045139    Angstroms    0.61
    alpha         51.648000     51.360329    -0.287671    Degrees     -0.56
    beta          51.648000     51.381576    -0.266424    Degrees     -0.52
    gamma         51.648000     51.379896    -0.268104    Degrees     -0.52
      1 x          0.333900      0.333900     0.000000    Fractional   0.00
      1 y          0.333900      0.333900     0.000000    Fractional   0.00
      1 z          0.333900      0.333900     0.000000    Fractional   0.00
      2 x          0.666100      0.667797     0.001697    Fractional   0.25
      2 y          0.666100      0.667813     0.001713    Fractional   0.26
      2 z          0.666100      0.667799     0.001699    Fractional   0.25
      3 x          0.073700      0.075682     0.001982    Fractional   2.69
      3 y          0.443900      0.445383     0.001483    Fractional   0.33
      3 z          0.705300      0.703391     0.001909    Fractional   0.27
      4 x          0.294700      0.297892     0.003192    Fractional   1.08
      4 y          0.926300      0.926501     0.000201    Fractional   0.02
      4 z          0.556100      0.556250     0.000150    Fractional   0.03
      5 x          0.443900      0.445899     0.001999    Fractional   0.45
      5 y          0.705300      0.703300     0.002000    Fractional   0.28
      5 z          0.073700      0.075286     0.001586    Fractional   2.15
      6 x          0.556100      0.555797     0.000303    Fractional   0.05
      6 y          0.294700      0.298410     0.003710    Fractional   1.26
      6 z          0.926300      0.926421     0.000121    Fractional   0.01
      7 x          0.705300      0.703804     0.001496    Fractional   0.21
      7 y          0.073700      0.075207     0.001507    Fractional   2.04
      7 z          0.443900      0.445450     0.001550    Fractional   0.35
      8 x          0.926300      0.926009     0.000291    Fractional   0.03
      8 y          0.556100      0.556319     0.000219    Fractional   0.04
      8 z          0.294700      0.298315     0.003615    Fractional   1.23
      9 x          0.073700      0.065947     0.007753    Fractional  10.52
[...]
   1128 y          0.610668      0.611707     0.001038    Cartesian    0.17
   1128 z          9.114089      9.115726     0.001637    Cartesian    0.02
   1129 x         10.090772     10.091212     0.000440    Cartesian    0.00
   1129 y         10.711840     10.710310    -0.001530    Cartesian   -0.01
   1129 z         18.011666     18.009835    -0.001831    Cartesian   -0.01
   1130 x         12.264487     12.265205     0.000718    Cartesian    0.01
   1130 y         14.555873     14.554168    -0.001705    Cartesian   -0.01
   1130 z         14.521453     14.522198     0.000744    Cartesian    0.01
   1131 x          7.594242      7.595553     0.001312    Cartesian    0.02
   1131 y          5.074029      5.074363     0.000334    Cartesian    0.01
   1131 z         19.907124     19.904862    -0.002261    Cartesian   -0.01
   1132 x         -5.735690     -5.736940    -0.001249    Cartesian    0.02
   1132 y         -4.173267     -4.172565     0.000702    Cartesian   -0.02
   1132 z         -3.670388     -3.671798    -0.001411    Cartesian    0.04
   1133 x         -1.832551     -1.831592     0.000959    Cartesian   -0.05
   1133 y         -3.097617     -3.092762     0.004855    Cartesian   -0.16
   1133 z         -8.375170     -8.366840     0.008330    Cartesian   -0.10
   1134 x         -4.658582     -4.657071     0.001511    Cartesian   -0.03
   1134 y          2.754727      2.756627     0.001900    Cartesian    0.07
   1134 z         -8.373684     -8.366196     0.007488    Cartesian   -0.09
   1135 x         12.268049     12.267173    -0.000876    Cartesian   -0.01
   1135 y         18.167700     18.165258    -0.002441    Cartesian   -0.01
   1135 z          9.118547      9.120941     0.002393    Cartesian    0.03
   1136 x         13.357087     13.356442    -0.000645    Cartesian   -0.00
   1136 y         10.888118     10.889888     0.001770    Cartesian    0.02
   1136 z         16.619040     16.617852    -0.001188    Cartesian   -0.01
   1137 x         16.738897     16.736153    -0.002743    Cartesian   -0.02
   1137 y         -7.732073     -7.728018     0.004055    Cartesian   -0.05
   1137 z          1.779768      1.781187     0.001419    Cartesian    0.08
   1138 x         -1.628345     -1.632050    -0.003705    Cartesian    0.23
   1138 y         10.852771     10.860201     0.007430    Cartesian    0.07
   1138 z         16.587540     16.587947     0.000407    Cartesian    0.00
   1139 x         20.753265     20.751498    -0.001767    Cartesian   -0.01
   1139 y          7.834322      7.831848    -0.002474    Cartesian   -0.03
   1139 z         -1.691723     -1.689300     0.002424    Cartesian   -0.14
   1140 x         13.145759     13.149495     0.003736    Cartesian    0.03
   1140 y        -10.285923    -10.288837    -0.002913    Cartesian    0.03
   1140 z          2.462142      2.455719    -0.006423    Cartesian   -0.26
   1141 x         -2.068628     -2.066457     0.002171    Cartesian   -0.10
   1141 y          4.824149      4.823780    -0.000369    Cartesian   -0.01
   1141 z         17.978681     17.975165    -0.003516    Cartesian   -0.02
   1142 x          9.242619      9.241727    -0.000893    Cartesian   -0.01
   1142 y        -11.361573    -11.357460     0.004113    Cartesian   -0.04
   1142 z          7.166924      7.166366    -0.000558    Cartesian   -0.01
   1143 x         -7.468650     -7.470357    -0.001707    Cartesian    0.02
   1143 y         -5.016702     -5.016463     0.000238    Cartesian   -0.00
   1143 z          2.947067      2.947746     0.000679    Cartesian    0.02
   1144 x         17.927234     17.926819    -0.000415    Cartesian   -0.00
   1144 y         13.686665     13.684304    -0.002361    Cartesian   -0.02
   1144 z         -1.690237     -1.686903     0.003334    Cartesian   -0.20
   1145 x         18.912612     18.905024    -0.007587    Cartesian   -0.04
   1145 y         -3.888039     -3.887236     0.000803    Cartesian   -0.02
   1145 z         -1.710445     -1.706838     0.003607    Cartesian   -0.21
   1146 x         21.845864     21.841919    -0.003945    Cartesian   -0.02
   1146 y          4.166566      4.168475     0.001908    Cartesian    0.05
   1146 z          0.405863      0.405802    -0.000061    Cartesian   -0.02
   1147 x         -9.657827     -9.657729     0.000098    Cartesian   -0.00
   1147 y          1.735044      1.731208    -0.003836    Cartesian   -0.22
   1147 z         -0.363563     -0.363950    -0.000386    Cartesian    0.11
   1148 x         15.005937     15.004053    -0.001884    Cartesian   -0.01
   1148 y         -8.575508     -8.571401     0.004106    Cartesian   -0.05
   1148 z          8.397222      8.395584    -0.001638    Cartesian   -0.02
   1149 x          3.920057      3.922635     0.002578    Cartesian    0.07
   1149 y        -11.147040    -11.140221     0.006818    Cartesian   -0.06
   1149 z          9.063867      9.059817    -0.004051    Cartesian   -0.04
   1150 x         -0.984398     -0.980989     0.003408    Cartesian   -0.35
   1150 y         18.975795     18.980254     0.004459    Cartesian    0.02
   1150 z          2.469572      2.475780     0.006207    Cartesian    0.25
   1151 x         12.519617     12.527399     0.007782    Cartesian    0.06
   1151 y         -0.349815     -0.351827    -0.002012    Cartesian    0.58
   1151 z        -10.434421    -10.432408     0.002013    Cartesian   -0.02
   1152 x          7.608486      7.606155    -0.002331    Cartesian   -0.03
   1152 y         19.521336     19.514114    -0.007222    Cartesian   -0.04
   1152 z         -1.704501     -1.701767     0.002734    Cartesian   -0.16
   1153 x          1.505512      1.508727     0.003215    Cartesian    0.21
   1153 y         14.361959     14.359564    -0.002395    Cartesian   -0.02
   1153 z         15.898349     15.895097    -0.003252    Cartesian   -0.02
   1154 x         -7.384068     -7.380197     0.003871    Cartesian   -0.05
   1154 y         12.262335     12.259133    -0.003202    Cartesian   -0.03
   1154 z          9.069812      9.066419    -0.003393    Cartesian   -0.04
   1155 x         -6.398690     -6.394244     0.004446    Cartesian   -0.07
   1155 y         -5.312370     -5.306086     0.006283    Cartesian   -0.12
   1155 z          9.049604      9.044095    -0.005509    Cartesian   -0.06
   1156 x         16.183118     16.180522    -0.002596    Cartesian   -0.02
   1156 y          5.035774      5.038480     0.002706    Cartesian    0.05
   1156 z         16.617554     16.617047    -0.000507    Cartesian   -0.00
   1157 x         -9.224721     -9.219959     0.004762    Cartesian   -0.05
   1157 y          0.539974      0.543781     0.003807    Cartesian    0.70
   1157 z          9.051090      9.045958    -0.005132    Cartesian   -0.06
   1158 x         21.842303     21.839423    -0.002880    Cartesian   -0.01
   1158 y          0.554740      0.558044     0.003305    Cartesian    0.60
   1158 z          5.808769      5.809044     0.000275    Cartesian    0.00
   1159 x          1.749903      1.752002     0.002098    Cartesian    0.12
   1159 y        -11.379246    -11.372313     0.006934    Cartesian   -0.06
   1159 z          7.151174      7.148254    -0.002920    Cartesian   -0.04
   1160 x         -0.739505     -0.737461     0.002044    Cartesian   -0.28
   1160 y         -9.793404     -9.786717     0.006686    Cartesian   -0.07
   1160 z         -1.759181     -1.761236    -0.002056    Cartesian    0.12
   1161 x         14.979290     14.974216    -0.005074    Cartesian   -0.03
   1161 y         -5.787216     -5.785205     0.002011    Cartesian   -0.03
   1161 z         13.286676     13.279752    -0.006924    Cartesian   -0.05
   1162 x          8.364935      8.364676    -0.000260    Cartesian   -0.00
   1162 y         17.092058     17.086618    -0.005440    Cartesian   -0.03
   1162 z         13.823309     13.816564    -0.006745    Cartesian   -0.05
   1163 x         -8.561722     -8.563982    -0.002261    Cartesian    0.03
   1163 y          1.679077      1.677665    -0.001412    Cartesian   -0.08
   1163 z         -3.668902     -3.670221    -0.001319    Cartesian    0.04
   1164 x         -9.217599     -9.213347     0.004252    Cartesian   -0.05
   1164 y          7.763627      7.764105     0.000478    Cartesian    0.01
   1164 z         -1.754722     -1.755347    -0.000625    Cartesian    0.04
   1165 x         -0.735944     -0.735034     0.000910    Cartesian   -0.12
   1165 y         -6.181577     -6.176885     0.004692    Cartesian   -0.08
   1165 z         -7.162087     -7.162134    -0.000048    Cartesian    0.00
   1166 x         -1.839673     -1.839428     0.000245    Cartesian   -0.01
   1166 y        -10.321270    -10.315604     0.005666    Cartesian   -0.05
   1166 z          2.430642      2.433806     0.003163    Cartesian    0.13
   1167 x          3.934302      3.930856    -0.003446    Cartesian   -0.09
   1167 y          3.300267      3.299242    -0.001025    Cartesian   -0.03
   1167 z        -12.547757    -12.542421     0.005336    Cartesian   -0.04
   1168 x         -6.388007     -6.384873     0.003134    Cartesian   -0.05
   1168 y          5.523110      5.523440     0.000330    Cartesian    0.01
   1168 z         -7.159115     -7.158149     0.000965    Cartesian   -0.01
   1169 x        -10.317767    -10.314119     0.003648    Cartesian   -0.04
   1169 y          7.235761      7.235351    -0.000410    Cartesian   -0.01
   1169 z          2.435101      2.436472     0.001371    Cartesian    0.06
   1170 x          3.675165      3.674981    -0.000184    Cartesian   -0.01
   1170 y         17.622159     17.615187    -0.006972    Cartesian   -0.04
   1170 z         13.292621     13.285087    -0.007533    Cartesian   -0.06
   1171 x        -10.294681    -10.296718    -0.002037    Cartesian    0.02
   1171 y          0.835642      0.833937    -0.001705    Cartesian   -0.20
   1171 z          2.948553      2.948717     0.000164    Cartesian    0.01
   1172 x         17.490567     17.487340    -0.003226    Cartesian   -0.02
   1172 y         11.269908     11.270363     0.000454    Cartesian    0.00
   1172 z         -5.701984     -5.699395     0.002590    Cartesian   -0.05
   1173 x         -3.468998     -3.467615     0.001383    Cartesian   -0.04
   1173 y         -0.869590     -0.868426     0.001164    Cartesian   -0.13
   1173 z         16.568818     16.563518    -0.005301    Cartesian   -0.03
   1174 x         11.187406     11.186424    -0.000981    Cartesian   -0.01
   1174 y          7.627887      7.625071    -0.002817    Cartesian   -0.04
   1174 z         19.224729     19.217187    -0.007542    Cartesian   -0.04
   1175 x         -6.828235     -6.828087     0.000147    Cartesian   -0.00
   1175 y         -0.505473     -0.508866    -0.003392    Cartesian    0.67
   1175 z         -5.767956     -5.768403    -0.000448    Cartesian    0.01
   1176 x         -8.454027     -8.456200    -0.002173    Cartesian    0.03
   1176 y         12.558003     12.560309     0.002306    Cartesian    0.02
   1176 z          2.967275      2.968778     0.001503    Cartesian    0.05
   1177 x          3.494074      3.498284     0.004210    Cartesian    0.12
   1177 y         -2.728317     -2.728725    -0.000408    Cartesian    0.01
   1177 z        -11.156598    -11.150073     0.006525    Cartesian   -0.06
   1178 x         -4.669265     -4.668969     0.000297    Cartesian   -0.01
   1178 y         -8.080753     -8.076680     0.004073    Cartesian   -0.05
   1178 z          7.835035      7.835462     0.000427    Cartesian    0.01
   1179 x         19.656658     19.657636     0.000978    Cartesian    0.00
   1179 y         10.918282     10.917372    -0.000909    Cartesian   -0.01
   1179 z         -2.904806     -2.904197     0.000610    Cartesian   -0.02
   1180 x          7.849371      7.843464    -0.005907    Cartesian   -0.08
   1180 y         -9.831659     -9.825500     0.006159    Cartesian   -0.06
   1180 z         -5.048751     -5.046147     0.002604    Cartesian   -0.05
   1181 x        -10.321328    -10.318263     0.003065    Cartesian   -0.03
   1181 y          3.623934      3.624414     0.000480    Cartesian    0.01
   1181 z          7.838007      7.837124    -0.000882    Cartesian   -0.01
   1182 x          4.586618      4.588516     0.001898    Cartesian    0.04
   1182 y         -6.396110     -6.388230     0.007880    Cartesian   -0.12
   1182 z         -9.059030     -9.056981     0.002050    Cartesian   -0.02
   1183 x         21.405581     21.401968    -0.003613    Cartesian   -0.02
   1183 y         -1.862055     -1.861771     0.000285    Cartesian   -0.02
   1183 z          1.797003      1.799937     0.002934    Cartesian    0.16
   1184 x         -9.661388     -9.660166     0.001222    Cartesian   -0.01
   1184 y         -1.876783     -1.880103    -0.003320    Cartesian    0.18
   1184 z          5.039343      5.038919    -0.000424    Cartesian   -0.01
   1185 x         11.834943     11.833484    -0.001459    Cartesian   -0.01
   1185 y         19.362769     19.359853    -0.002916    Cartesian   -0.02
   1185 z         -0.296106     -0.295083     0.001023    Cartesian   -0.35
   1186 x         -4.639057     -4.639956    -0.000899    Cartesian    0.02
   1186 y         -7.257219     -7.255048     0.002171    Cartesian   -0.03
   1186 z         -2.457326     -2.455166     0.002160    Cartesian   -0.09
   1187 x          4.656982      4.657117     0.000135    Cartesian    0.00
   1187 y         -3.564372     -3.563280     0.001092    Cartesian   -0.03
   1187 z         18.675319     18.672106    -0.003213    Cartesian   -0.02
   1188 x          6.849749      6.848807    -0.000942    Cartesian   -0.01
   1188 y         -6.704261     -6.701809     0.002452    Cartesian   -0.04
   1188 z         16.583082     16.580605    -0.002477    Cartesian   -0.01
   1189 x          5.438332      5.435561    -0.002771    Cartesian   -0.05
   1189 y         19.289129     19.283246    -0.005883    Cartesian   -0.03
   1189 z         -3.617194     -3.613744     0.003451    Cartesian   -0.10
   1190 x         -0.995081     -0.995637    -0.000556    Cartesian    0.06
   1190 y          8.140315      8.135137    -0.005179    Cartesian   -0.06
   1190 z         18.678291     18.664863    -0.013428    Cartesian   -0.07
   1191 x         -5.739251     -5.738844     0.000408    Cartesian   -0.01
   1191 y         -7.785093     -7.781868     0.003226    Cartesian   -0.04
   1191 z          1.732518      1.730832    -0.001686    Cartesian   -0.10
   1192 x         12.508934     12.498296    -0.010638    Cartesian   -0.09
   1192 y        -11.185295    -11.176179     0.009116    Cartesian   -0.08
   1192 z          5.774297      5.770364    -0.003933    Cartesian   -0.07
   1193 x         20.416642     20.412387    -0.004255    Cartesian   -0.02
   1193 y         12.100823     12.096502    -0.004320    Cartesian   -0.04
   1193 z          7.220118      7.222180     0.002063    Cartesian    0.03
   1194 x         21.513275     21.510609    -0.002666    Cartesian   -0.01
   1194 y          9.016871      9.013945    -0.002926    Cartesian   -0.03
   1194 z          8.433180      8.429213    -0.003967    Cartesian   -0.05
   1195 x         19.320537     19.315276    -0.005260    Cartesian   -0.03
   1195 y         12.156789     12.157675     0.000886    Cartesian    0.01
   1195 z         10.525456     10.523970    -0.001487    Cartesian   -0.01
   1196 x         -8.121438     -8.111233     0.010205    Cartesian   -0.13
   1196 y          7.707699      7.701783    -0.005916    Cartesian   -0.08
   1196 z         -5.060042     -5.056596     0.003446    Cartesian   -0.07
   1197 x         18.572428     18.570024    -0.002403    Cartesian   -0.01
   1197 y         -3.233365     -3.231304     0.002061    Cartesian   -0.06
   1197 z         12.604302     12.602610    -0.001692    Cartesian   -0.01

  Time to end of optimisation  =      402.1345 seconds

  Timing analysis for GULP :

  Task / Subroutine                                          Time (Seconds)
  Calculation of reciprocal space energy and derivatives          0.0171
  Calculation of real space energy and derivatives                0.5507
  Calculation for region 1 energy and derivatives (2-b)         164.1238
  Calculation for region 2a energy                              140.7388
  Calculation for region 2b energy                                0.0222
  Calculation and manipulation of Hessian matrix                  0.0566
  Calculation of matrix inversion                                95.0771
  Symmetry generation of equivalent positions                     0.0002

  Dump file written as ScCl3.grs

  **** GULP has completed with   2 warnings - beware! ****

  Job Finished at 18:50.31  7th February   2022