  Job Started  at 18:45.35  7th February   2022

  Number of CPUs =     1

  Total number of configurations input =      1

*  Input for Configuration =   1                                               *

  Formula = Sc2Cl6

  Number of irreducible atoms/shells =      14

  Total number atoms/shells =      14

  Dimensionality = 3               :  Bulk

  Cartesian lattice vectors (Angstroms) :

        7.453000    0.000000    0.000000
        4.624520    5.844744    0.000000
        4.624520    2.237970    5.399307

  Cell parameters (Angstroms/Degrees):

  a =       7.4530    alpha =  51.6480
  b =       7.4530    beta  =  51.6480
  c =       7.4530    gamma =  51.6480

  Initial cell volume =         235.198534 Angs**3

  Temperature of configuration =   0.00     K

  Pressure of configuration =         0.000 GPa

  Fractional coordinates of asymmetric unit :

   No.  Atomic       x           y          z         Charge      Occupancy
        Label      (Frac)      (Frac)     (Frac)        (e)         (Frac)
      1 Sc    c    0.333900    0.333900    0.333900     3.00000    1.000000
      2 Sc    c    0.666100 *  0.666100 *  0.666100 *   3.00000    1.000000
      3 Cl    c    0.073700 *  0.443900 *  0.705300 *   1.48500    1.000000
      4 Cl    c    0.294700 *  0.926300 *  0.556100 *   1.48500    1.000000
      5 Cl    c    0.443900 *  0.705300 *  0.073700 *   1.48500    1.000000
      6 Cl    c    0.556100 *  0.294700 *  0.926300 *   1.48500    1.000000
      7 Cl    c    0.705300 *  0.073700 *  0.443900 *   1.48500    1.000000
      8 Cl    c    0.926300 *  0.556100 *  0.294700 *   1.48500    1.000000
      9 Cl    s    0.073700 *  0.443900 *  0.705300 *  -2.48500    1.000000
     10 Cl    s    0.294700 *  0.926300 *  0.556100 *  -2.48500    1.000000
     11 Cl    s    0.443900 *  0.705300 *  0.073700 *  -2.48500    1.000000
     12 Cl    s    0.556100 *  0.294700 *  0.926300 *  -2.48500    1.000000
     13 Cl    s    0.705300 *  0.073700 *  0.443900 *  -2.48500    1.000000
     14 Cl    s    0.926300 *  0.556100 *  0.294700 *  -2.48500    1.000000

*  General input information                                                   *

  Species output for all configurations :

  Species    Type    Atomic    Atomic    Charge       Radii (Angs)     Library
                     Number     Mass       (e)     Cova   Ionic  VDW   Symbol
    Sc       Core       21      44.96   3.000000   1.440  0.000  2.150
    Cl       Core       17      35.45   1.485000   0.990  0.000  1.650
    Cl       Shell      17       0.00  -2.485000   0.990  0.000  1.650

  Lattice summation method               =    Ewald          (3-D)
                                         =    Parry          (2-D)
                                         =    Saunders et al (1-D)
  Accuracy factor for lattice sums       =   12.000

  Analytic derivatives to be used

  Time limit = Infinity

  Maximum range for interatomic potentials =    100000.000000 Angstroms

  General interatomic potentials :

Atom  Types   Potential      Parameter       Value         Units   Cutoffs(Ang)
  1     2                                                            Min /  Max
Cl   c Cl   s Spring (c-s)  Spring k 2       36.070000    eV*Ang^-2 0.000  0.800
                            Spring k 4       0.0000000    eV*Ang^-4
Sc   c Cl   s Buckingham    Buckingham A     2456.2200    eV        0.000 12.000
                            Buckingham rho  0.31470000    Ang
                            Buckingham C     0.0000000    eV*Ang^6
Cl   s Cl   s Buckingham    Buckingham A     1227.2000    eV        0.000 12.000
                            Buckingham rho  0.32100000    Ang
                            Buckingham C     14.530000    eV*Ang^6

*  Output for configuration   1                                                *

  Components of energy :

  Interatomic potentials     =          10.39244711 eV
  Monopole - monopole (real) =         -30.86300284 eV
  Monopole - monopole (recip)=         -65.52201623 eV
  Monopole - monopole (total)=         -96.38501907 eV
  Total lattice energy       =         -85.99257196 eV
  Total lattice energy       =           -8296.9687 kJ/(mole unit cells)

  Number of variables =       45

  Maximum number of calculations  =          1000
  Maximum Hessian update interval =            10
  Maximum step size               =   1.000000000
  Maximum parameter tolerance     =   0.000010000
  Maximum function  tolerance     =   0.000010000
  Maximum gradient  tolerance     =   0.001000000
  Maximum gradient  component     =   0.010000000

  Symmetry not applied to optimisation

  Cell parameters to be optimised using strains

  Newton-Raphson optimiser to be used

  BFGS hessian update to be used

  Lower half triangular hessian to be used

  Start of bulk optimisation :

  ** Hessian calculated **
  ** Hessian calculated **
  ** Hessian calculated **

  **** Optimisation achieved ****

  Final energy =     -94.18617309 eV
  Final Gnorm  =       0.00026742

  Components of energy :

  Interatomic potentials     =          21.32396821 eV
  Monopole - monopole (real) =          81.06426209 eV
  Monopole - monopole (recip)=        -196.57440339 eV
  Monopole - monopole (total)=        -115.51014130 eV
  Total lattice energy       =         -94.18617309 eV
  Total lattice energy       =           -9087.5259 kJ/(mole unit cells)

  Final fractional coordinates of atoms :

   No.  Atomic        x           y          z          Radius
        Label       (Frac)      (Frac)     (Frac)       (Angs)
     1  Sc    c     0.333900    0.333900    0.333900    0.000000
     2  Sc    c     0.667797    0.667813    0.667799    0.000000
     3  Cl    c     0.075682    0.445383    0.703391    0.000000
     4  Cl    c     0.297892    0.926501    0.556250    0.000000
     5  Cl    c     0.445899    0.703300    0.075286    0.000000
     6  Cl    c     0.555797    0.298410    0.926421    0.000000
     7  Cl    c     0.703804    0.075207    0.445450    0.000000
     8  Cl    c     0.926009    0.556319    0.298315    0.000000
     9  Cl    s     0.065947    0.452571    0.677260    0.000000
    10  Cl    s     0.324076    0.936176    0.549072    0.000000
    11  Cl    s     0.453018    0.677183    0.065599    0.000000
    12  Cl    s     0.548677    0.324526    0.936109    0.000000
    13  Cl    s     0.677621    0.065531    0.452629    0.000000
    14  Cl    s     0.935746    0.549133    0.324445    0.000000

  Final Cartesian lattice vectors (Angstroms) :

        7.492716    0.017674    0.015750
        4.666685    5.870017    0.017236
        4.663123    2.258191    5.420142

  Final cell parameters and derivatives :

       a            7.492753 Angstrom     dE/de1(xx)     0.001502 eV/strain
       b            7.499023 Angstrom     dE/de2(yy)     0.001130 eV/strain
       c            7.498139 Angstrom     dE/de3(zz)     0.001402 eV/strain
       alpha       51.360329 Degrees      dE/de4(yz)     0.000184 eV/strain
       beta        51.381576 Degrees      dE/de5(xz)     0.000594 eV/strain
       gamma       51.379896 Degrees      dE/de6(xy)     0.000958 eV/strain

  Primitive cell volume =           237.388320 Angs**3

  Density of cell =      2.116870 g/cm**3

  Non-primitive cell volume =           237.388320 Angs**3

  Final internal derivatives :

   No.  Atomic          a             b             c           Radius
        Label          (eV)          (eV)          (eV)        (eV/Angs)
      1 Sc    c       0.000000      0.000000      0.000000      0.000000
      2 Sc    c       0.001681      0.001454      0.000124      0.000000
      3 Cl    c      -0.002719     -0.000640     -0.000937      0.000000
      4 Cl    c       0.000986      0.001285      0.000118      0.000000
      5 Cl    c       0.001446      0.000724      0.001502      0.000000
      6 Cl    c      -0.000978      0.000527     -0.000482      0.000000
      7 Cl    c      -0.001726     -0.001514     -0.000663      0.000000
      8 Cl    c       0.000842     -0.000977      0.000232      0.000000
      9 Cl    s       0.003561      0.001253      0.002922      0.000000
     10 Cl    s      -0.002865     -0.003016     -0.001029      0.000000
     11 Cl    s       0.001191      0.003381      0.002375      0.000000
     12 Cl    s      -0.001348     -0.004134     -0.001709      0.000000
     13 Cl    s       0.002463      0.001978      0.000726      0.000000
     14 Cl    s      -0.002693     -0.000158     -0.002951      0.000000
  Maximum abs         0.003561      0.004134      0.002951      0.000000

  Comparison of initial and final structures :

  Parameter   Initial value   Final value   Difference    Units      Percent
    Volume       235.198534    237.388320     2.189785    Angs**3      0.93
    a              7.453000      7.492753     0.039753    Angstroms    0.53
    b              7.453000      7.499023     0.046023    Angstroms    0.62
    c              7.453000      7.498139     0.045139    Angstroms    0.61
    alpha         51.648000     51.360329    -0.287671    Degrees     -0.56
    beta          51.648000     51.381576    -0.266424    Degrees     -0.52
    gamma         51.648000     51.379896    -0.268104    Degrees     -0.52
      1 x          0.333900      0.333900     0.000000    Fractional   0.00
      1 y          0.333900      0.333900     0.000000    Fractional   0.00
      1 z          0.333900      0.333900     0.000000    Fractional   0.00
      2 x          0.666100      0.667797     0.001697    Fractional   0.25
      2 y          0.666100      0.667813     0.001713    Fractional   0.26
      2 z          0.666100      0.667799     0.001699    Fractional   0.25
      3 x          0.073700      0.075682     0.001982    Fractional   2.69
      3 y          0.443900      0.445383     0.001483    Fractional   0.33
      3 z          0.705300      0.703391     0.001909    Fractional   0.27
      4 x          0.294700      0.297892     0.003192    Fractional   1.08
      4 y          0.926300      0.926501     0.000201    Fractional   0.02
      4 z          0.556100      0.556250     0.000150    Fractional   0.03
      5 x          0.443900      0.445899     0.001999    Fractional   0.45
      5 y          0.705300      0.703300     0.002000    Fractional   0.28
      5 z          0.073700      0.075286     0.001586    Fractional   2.15
      6 x          0.556100      0.555797     0.000303    Fractional   0.05
      6 y          0.294700      0.298410     0.003710    Fractional   1.26
      6 z          0.926300      0.926421     0.000121    Fractional   0.01
      7 x          0.705300      0.703804     0.001496    Fractional   0.21
      7 y          0.073700      0.075207     0.001507    Fractional   2.04
      7 z          0.443900      0.445450     0.001550    Fractional   0.35
      8 x          0.926300      0.926009     0.000291    Fractional   0.03
      8 y          0.556100      0.556319     0.000219    Fractional   0.04
      8 z          0.294700      0.298315     0.003615    Fractional   1.23
      9 x          0.073700      0.065947     0.007753    Fractional  10.52
[...]
   1905 z         10.488012     10.488036     0.000023    Cartesian    0.00
   1906 x          6.538527      6.538879     0.000352    Cartesian    0.01
   1906 y         19.817003     19.814110    -0.002893    Cartesian   -0.01
   1906 z         -7.807038     -7.804539     0.002499    Cartesian   -0.03
   1907 x         23.239112     23.236813    -0.002299    Cartesian   -0.01
   1907 y          2.636652      2.635802    -0.000850    Cartesian   -0.03
   1907 z         12.621538     12.621418    -0.000119    Cartesian   -0.00
   1908 x         -9.664949     -9.664687     0.000262    Cartesian   -0.00
   1908 y         -5.488610     -5.490707    -0.002097    Cartesian    0.04
   1908 z         10.442249     10.441540    -0.000709    Cartesian   -0.01
   1909 x         17.583488     17.581681    -0.001807    Cartesian   -0.01
   1909 y         10.729513     10.728008    -0.001505    Cartesian   -0.01
   1909 z         18.027416     18.026772    -0.000644    Cartesian   -0.00
   1910 x         20.642036     20.641952    -0.000084    Cartesian   -0.00
   1910 y         -6.656423     -6.655164     0.001259    Cartesian   -0.02
   1910 z         -2.925014     -2.924450     0.000564    Cartesian   -0.02
   1911 x        -10.650327    -10.645140     0.005188    Cartesian   -0.05
   1911 y         12.086095     12.083477    -0.002618    Cartesian   -0.02
   1911 z         10.462457     10.460943    -0.001515    Cartesian   -0.01
   1912 x         23.139068     23.133543    -0.005525    Cartesian   -0.02
   1912 y         -4.046606     -4.043042     0.003564    Cartesian   -0.09
   1912 z         -0.302050     -0.302164    -0.000113    Cartesian    0.04
   1913 x         -2.713822     -2.709992     0.003830    Cartesian   -0.14
   1913 y         21.744179     21.748847     0.004667    Cartesian    0.02
   1913 z          3.684142      3.682756    -0.001386    Cartesian   -0.04
   1914 x         14.253049     14.257614     0.004565    Cartesian    0.03
   1914 y         -2.534403     -2.530950     0.003453    Cartesian   -0.14
   1914 z        -12.533494    -12.535572    -0.002079    Cartesian    0.02
   1915 x         -1.828990     -1.828159     0.000831    Cartesian   -0.05
   1915 y          0.514209      0.516804     0.002594    Cartesian    0.50
   1915 z        -13.778076    -13.770880     0.007196    Cartesian   -0.05
   1916 x         -1.809465     -1.810659    -0.001194    Cartesian    0.07
   1916 y         -9.497736     -9.496045     0.001691    Cartesian   -0.02
   1916 z         -7.861718     -7.859417     0.002301    Cartesian   -0.03
   1917 x        -13.124273    -13.125144    -0.000871    Cartesian    0.01
   1917 y          3.076159      3.075627    -0.000532    Cartesian   -0.02
   1917 z          8.352945      8.352435    -0.000510    Cartesian   -0.01
   1918 x         24.316220     24.315974    -0.000247    Cartesian   -0.00
   1918 y          9.564646      9.564581    -0.000064    Cartesian   -0.00
   1918 z          7.918242      7.916790    -0.001452    Cartesian   -0.02
   1919 x         20.853364     20.852345    -0.001019    Cartesian   -0.00
   1919 y         14.517618     14.518565     0.000947    Cartesian    0.01
   1919 z         11.231883     11.231093    -0.000791    Cartesian   -0.01
   1920 x          6.511879      6.510538    -0.001341    Cartesian   -0.02
   1920 y         22.605295     22.598463    -0.006832    Cartesian   -0.03
   1920 z         -2.917584     -2.918049    -0.000466    Cartesian    0.02
   1921 x         -9.117500     -9.113014     0.004486    Cartesian   -0.05
   1921 y         14.446924     14.444326    -0.002598    Cartesian   -0.02
   1921 z         11.168884     11.168407    -0.000477    Cartesian   -0.00
   1922 x          5.774955      5.770436    -0.004519    Cartesian   -0.08
   1922 y         15.022628     15.014688    -0.007940    Cartesian   -0.05
   1922 z        -12.529035    -12.521876     0.007159    Cartesian   -0.06
   1923 x         23.682956     23.681059    -0.001898    Cartesian   -0.01
   1923 y         12.277101     12.278157     0.001056    Cartesian    0.01
   1923 z          5.827491      5.827374    -0.000117    Cartesian   -0.00
   1924 x          4.590179      4.590521     0.000342    Cartesian    0.01
   1924 y         -2.784284     -2.781750     0.002533    Cartesian   -0.09
   1924 z        -14.461937    -14.460413     0.001524    Cartesian   -0.01
   1925 x         21.490189     21.490077    -0.000112    Cartesian   -0.00
   1925 y         15.416989     15.415886    -0.001103    Cartesian   -0.01
   1925 z          7.919728      7.918215    -0.001513    Cartesian   -0.02
   1926 x         20.742581     20.742627     0.000045    Cartesian    0.00
   1926 y         -3.001158     -2.999815     0.001343    Cartesian   -0.04
   1926 z         14.516995     14.517294     0.000299    Cartesian    0.00
   1927 x        -11.058252    -11.054900     0.003352    Cartesian   -0.03
   1927 y         -3.958734     -3.955089     0.003645    Cartesian   -0.09
   1927 z         -1.773444     -1.775452    -0.002008    Cartesian    0.11
   1928 x         11.201650     11.201761     0.000111    Cartesian    0.00
   1928 y         22.075194     22.071919    -0.003275    Cartesian   -0.01
   1928 z         -2.386896     -2.386748     0.000148    Cartesian   -0.01
   1929 x         -2.175795     -2.172899     0.002896    Cartesian   -0.13
   1929 y         -9.082763     -9.081682     0.001080    Cartesian   -0.01
   1929 z         15.860905     15.858364    -0.002541    Cartesian   -0.02
   1930 x         12.194151     12.194233     0.000082    Cartesian    0.00
   1930 y         11.724143     11.723582    -0.000560    Cartesian   -0.00
   1930 z        -13.212916    -13.208475     0.004442    Cartesian   -0.03
   1931 x         -6.735313     -6.732140     0.003173    Cartesian   -0.05
   1931 y         -1.045869     -1.043769     0.002100    Cartesian   -0.20
   1931 z         17.961445     17.957704    -0.003740    Cartesian   -0.02
   1932 x         -3.164734     -3.163539     0.001194    Cartesian   -0.04
   1932 y          4.880115      4.879116    -0.000999    Cartesian   -0.02
   1932 z         21.284019     21.282410    -0.001609    Cartesian   -0.01
   1933 x         10.339253     10.338428    -0.000824    Cartesian   -0.01
   1933 y        -14.445525    -14.443306     0.002219    Cartesian   -0.02
   1933 z          8.379986      8.380340     0.000354    Cartesian    0.00
   1934 x         16.075897     16.075780    -0.000117    Cartesian   -0.00
   1934 y         -8.871176     -8.868829     0.002346    Cartesian   -0.03
   1934 z         14.499759     14.498271    -0.001488    Cartesian   -0.01
   1935 x          6.320105      6.320703     0.000598    Cartesian    0.01
   1935 y         -8.580661     -8.579929     0.000732    Cartesian   -0.01
   1935 z        -11.158084    -11.155885     0.002199    Cartesian   -0.02
   1936 x         -6.824673     -6.820802     0.003871    Cartesian   -0.06
   1936 y          3.106353      3.103923    -0.002430    Cartesian   -0.08
   1936 z        -11.170862    -11.168426     0.002435    Cartesian   -0.02
   1937 x         -8.450466     -8.445787     0.004679    Cartesian   -0.06
   1937 y         16.169830     16.168141    -0.001689    Cartesian   -0.01
   1937 z         -2.435631     -2.430815     0.004816    Cartesian   -0.20
   1938 x          5.030462      5.028920    -0.001543    Cartesian   -0.03
   1938 y          3.244338      3.244651     0.000313    Cartesian    0.01
   1938 z        -15.853077    -15.848977     0.004100    Cartesian   -0.03
   1939 x          9.438456      9.437092    -0.001364    Cartesian   -0.01
   1939 y         20.408217     20.403715    -0.004502    Cartesian   -0.02
   1939 z         14.522940     14.521896    -0.001043    Cartesian   -0.01
   1940 x         -5.987204     -5.983249     0.003955    Cartesian   -0.07
   1940 y         14.344286     14.341927    -0.002359    Cartesian   -0.02
   1940 z         15.882599     15.880384    -0.002215    Cartesian   -0.01
   1941 x         -5.742813     -5.742652     0.000161    Cartesian   -0.00
   1941 y        -11.396920    -11.394515     0.002405    Cartesian   -0.02
   1941 z          7.135424      7.133335    -0.002090    Cartesian   -0.03
   1942 x         13.172406     13.171546    -0.000860    Cartesian   -0.01
   1942 y        -13.074215    -13.069847     0.004368    Cartesian   -0.03
   1942 z         -2.427312     -2.424962     0.002350    Cartesian   -0.10
   1943 x         23.679395     23.677868    -0.001527    Cartesian   -0.01
   1943 y          8.665274      8.666981     0.001707    Cartesian    0.02
   1943 z         11.230397     11.229507    -0.000890    Cartesian   -0.01
   1944 x         21.486628     21.486711     0.000083    Cartesian    0.00
   1944 y         11.805163     11.804800    -0.000363    Cartesian   -0.00
   1944 z         13.322634     13.320344    -0.002290    Cartesian   -0.02
   1945 x         -0.227975     -0.225944     0.002031    Cartesian   -0.89
   1945 y         16.546510     16.544396    -0.002114    Cartesian   -0.01
   1945 z         17.997403     17.994673    -0.002730    Cartesian   -0.02
   1946 x          1.945740      1.945068    -0.000672    Cartesian   -0.03
   1946 y         20.390543     20.384781    -0.005762    Cartesian   -0.03
   1946 z         14.507190     14.505713    -0.001476    Cartesian   -0.01
   1947 x          5.420527      5.423155     0.002629    Cartesian    0.05
   1947 y          1.229996      1.232775     0.002780    Cartesian    0.23
   1947 z         23.397337     23.391791    -0.005546    Cartesian   -0.02
   1948 x         20.756826     20.753671    -0.003155    Cartesian   -0.02
   1948 y         11.446148     11.443331    -0.002817    Cartesian   -0.02
   1948 z         -7.094630     -7.091543     0.003086    Cartesian   -0.04
   1949 x         -4.565159     -4.562176     0.002983    Cartesian   -0.07
   1949 y         -0.813662     -0.810459     0.003202    Cartesian   -0.39
   1949 z         19.874138     19.870312    -0.003826    Cartesian   -0.02
   1950 x         24.979722     24.975840    -0.003882    Cartesian   -0.02
   1950 y          7.675755      7.677520     0.001765    Cartesian    0.02
   1950 z         -0.283328     -0.283153     0.000176    Cartesian   -0.06
   1951 x         15.861213     15.860634    -0.000578    Cartesian   -0.00
   1951 y         20.721558     20.718485    -0.003073    Cartesian   -0.01
   1951 z          8.436152      8.433146    -0.003007    Cartesian   -0.04
   1952 x          5.686813      5.687731     0.000919    Cartesian    0.02
   1952 y         -5.868236     -5.861661     0.006574    Cartesian   -0.11
   1952 z        -13.248874    -13.238610     0.010264    Cartesian   -0.08
   1953 x         -9.228282     -9.224433     0.003849    Cartesian   -0.04
   1953 y         -3.071852     -3.067873     0.003980    Cartesian   -0.13
   1953 z         14.453996     14.449217    -0.004779    Cartesian   -0.03
   1954 x         16.093703     16.089547    -0.004156    Cartesian   -0.03
   1954 y          9.187958      9.184551    -0.003407    Cartesian   -0.04
   1954 z        -12.514772    -12.509620     0.005152    Cartesian   -0.04
   1955 x         -1.631906     -1.634553    -0.002647    Cartesian    0.16
   1955 y          7.240944      7.244199     0.003255    Cartesian    0.04
   1955 z         21.990446     21.988408    -0.002038    Cartesian   -0.01
   1956 x         13.142198     13.142395     0.000197    Cartesian    0.00
   1956 y        -13.897750    -13.898205    -0.000455    Cartesian    0.00
   1956 z          7.865048      7.860598    -0.004450    Cartesian   -0.06
   1957 x          7.271863      7.270539    -0.001324    Cartesian   -0.02
   1957 y         23.787837     23.782898    -0.004938    Cartesian   -0.02
   1957 z          7.207340      7.208645     0.001305    Cartesian    0.02
   1958 x          9.582803      9.581001    -0.001803    Cartesian   -0.02
   1958 y        -12.016247    -12.013709     0.002538    Cartesian   -0.02
   1958 z         -7.147823     -7.145357     0.002466    Cartesian   -0.03
   1959 x        -12.791684    -12.786281     0.005404    Cartesian   -0.04
   1959 y         -1.774145     -1.775955    -0.001810    Cartesian    0.10
   1959 z          0.325628      0.326654     0.001026    Cartesian    0.32
   1960 x         -9.328828     -9.326921     0.001907    Cartesian   -0.02
   1960 y         -6.727117     -6.723693     0.003425    Cartesian   -0.05
   1960 z         -2.988013     -2.983517     0.004496    Cartesian   -0.15
   1961 x        -12.154859    -12.152657     0.002203    Cartesian   -0.02
   1961 y         -0.874774     -0.872081     0.002693    Cartesian   -0.31
   1961 z         -2.986527     -2.982824     0.003704    Cartesian   -0.12
   1962 x         -9.962092     -9.957404     0.004688    Cartesian   -0.05
   1962 y         -4.014662     -4.015689    -0.001027    Cartesian    0.03
   1962 z         -5.078764     -5.077515     0.001249    Cartesian   -0.02
   1963 x          2.090087      2.090365     0.000278    Cartesian    0.01
   1963 y        -12.033921    -12.029353     0.004568    Cartesian   -0.04
   1963 z         -7.163573     -7.163663    -0.000090    Cartesian    0.00
   1964 x         19.669061     19.667828    -0.001233    Cartesian   -0.01
   1964 y         -6.317317     -6.315728     0.001589    Cartesian   -0.03
   1964 z         13.817364     13.815013    -0.002351    Cartesian   -0.02
   1965 x         -4.547353     -4.547374    -0.000021    Cartesian    0.00
   1965 y         17.245471     17.238859    -0.006612    Cartesian   -0.04
   1965 z         -7.140393     -7.136918     0.003475    Cartesian   -0.05
   1966 x         -3.813990     -3.813092     0.000898    Cartesian   -0.02
   1966 y         21.216312     21.212119    -0.004193    Cartesian   -0.02
   1966 z          7.873965      7.871508    -0.002457    Cartesian   -0.03
   1967 x         15.345649     15.341797    -0.003852    Cartesian   -0.03
   1967 y         -6.202159     -6.199755     0.002404    Cartesian   -0.04
   1967 z        -10.435907    -10.433918     0.001989    Cartesian   -0.02
   1968 x         -9.214038     -9.212017     0.002021    Cartesian   -0.02
   1968 y         11.375454     11.373471    -0.001983    Cartesian   -0.02
   1968 z         -7.157629     -7.156031     0.001598    Cartesian   -0.02
   1969 x          2.594495      2.597339     0.002843    Cartesian    0.11
   1969 y          7.082339      7.083144     0.000805    Cartesian    0.01
   1969 z         23.398823     23.394728    -0.004094    Cartesian   -0.02
   1970 x          6.172197      6.173129     0.000932    Cartesian    0.02
   1970 y         20.231977     20.229640    -0.002336    Cartesian   -0.01
   1970 z         15.915585     15.913596    -0.001989    Cartesian   -0.01
   1971 x        -12.158420    -12.156132     0.002289    Cartesian   -0.02
   1971 y         -4.486600     -4.484393     0.002207    Cartesian   -0.05
   1971 z          2.416379      2.418666     0.002287    Cartesian    0.09
   1972 x         -9.965653     -9.962001     0.003651    Cartesian   -0.04
   1972 y         -7.626489     -7.626449     0.000039    Cartesian   -0.00
   1972 z          0.324142      0.324978     0.000836    Cartesian    0.26
   1973 x         -1.843234     -1.843385    -0.000151    Cartesian    0.01
   1973 y        -13.933097    -13.928906     0.004191    Cartesian   -0.03
   1973 z          7.833549      7.834156     0.000607    Cartesian    0.01
   1974 x        -13.147359    -13.144834     0.002525    Cartesian   -0.02
   1974 y          9.476278      9.474647    -0.001630    Cartesian   -0.02
   1974 z          7.839493      7.838245    -0.001248    Cartesian   -0.02

  Time to end of optimisation  =      792.3169 seconds

  Timing analysis for GULP :

  Task / Subroutine                                          Time (Seconds)
  Calculation of reciprocal space energy and derivatives          0.0215
  Calculation of real space energy and derivatives                0.6459
  Calculation for region 1 energy and derivatives (2-b)         223.1524
  Calculation for region 2a energy                               60.3682
  Calculation for region 2b energy                                0.0102
  Calculation and manipulation of Hessian matrix                  0.1875
  Calculation of matrix inversion                               505.0674
  Symmetry generation of equivalent positions                     0.0003
  Global summation overhead                                       0.0001

  Dump file written as ScCl3.grs

  **** GULP has completed with   2 warnings - beware! ****

  Job Finished at 18:58.49  7th February   2022