  Job Started  at 17:22.57  7th February   2022

  Number of CPUs =     1

  Total number of configurations input =      1

*  Input for Configuration =   1                                               *

  Formula = Sc2Cl6

  Number of irreducible atoms/shells =      14

  Total number atoms/shells =      14

  Dimensionality = 3               :  Bulk

  Cartesian lattice vectors (Angstroms) :

        7.453000    0.000000    0.000000
        4.624520    5.844744    0.000000
        4.624520    2.237970    5.399307

  Cell parameters (Angstroms/Degrees):

  a =       7.4530    alpha =  51.6480
  b =       7.4530    beta  =  51.6480
  c =       7.4530    gamma =  51.6480

  Initial cell volume =         235.198534 Angs**3

  Temperature of configuration =   0.00     K

  Pressure of configuration =         0.000 GPa

  Fractional coordinates of asymmetric unit :

   No.  Atomic       x           y          z         Charge      Occupancy
        Label      (Frac)      (Frac)     (Frac)        (e)         (Frac)
      1 Sc    c    0.333900    0.333900    0.333900     3.00000    1.000000
      2 Sc    c    0.666100 *  0.666100 *  0.666100 *   3.00000    1.000000
      3 Cl    c    0.073700 *  0.443900 *  0.705300 *   1.48500    1.000000
      4 Cl    c    0.294700 *  0.926300 *  0.556100 *   1.48500    1.000000
      5 Cl    c    0.443900 *  0.705300 *  0.073700 *   1.48500    1.000000
      6 Cl    c    0.556100 *  0.294700 *  0.926300 *   1.48500    1.000000
      7 Cl    c    0.705300 *  0.073700 *  0.443900 *   1.48500    1.000000
      8 Cl    c    0.926300 *  0.556100 *  0.294700 *   1.48500    1.000000
      9 Cl    s    0.073700 *  0.443900 *  0.705300 *  -2.48500    1.000000
     10 Cl    s    0.294700 *  0.926300 *  0.556100 *  -2.48500    1.000000
     11 Cl    s    0.443900 *  0.705300 *  0.073700 *  -2.48500    1.000000
     12 Cl    s    0.556100 *  0.294700 *  0.926300 *  -2.48500    1.000000
     13 Cl    s    0.705300 *  0.073700 *  0.443900 *  -2.48500    1.000000
     14 Cl    s    0.926300 *  0.556100 *  0.294700 *  -2.48500    1.000000

*  General input information                                                   *

  Species output for all configurations :

  Species    Type    Atomic    Atomic    Charge       Radii (Angs)     Library
                     Number     Mass       (e)     Cova   Ionic  VDW   Symbol
    Sc       Core       21      44.96   3.000000   1.440  0.000  2.150
    Cl       Core       17      35.45   1.485000   0.990  0.000  1.650
    Cl       Shell      17       0.00  -2.485000   0.990  0.000  1.650

  Lattice summation method               =    Ewald          (3-D)
                                         =    Parry          (2-D)
                                         =    Saunders et al (1-D)
  Accuracy factor for lattice sums       =   12.000

  Analytic derivatives to be used

  Time limit = Infinity

  Maximum range for interatomic potentials =    100000.000000 Angstroms

  General interatomic potentials :

Atom  Types   Potential      Parameter       Value         Units   Cutoffs(Ang)
  1     2                                                            Min /  Max
Cl   c Cl   s Spring (c-s)  Spring k 2       29.380000    eV*Ang^-2 0.000  0.800
                            Spring k 4       0.0000000    eV*Ang^-4
Sc   c Cl   s Buckingham    Buckingham A     16091.010    eV        0.000 12.000
                            Buckingham rho  0.22740000    Ang
                            Buckingham C    0.58000000    eV*Ang^6
Cl   s Cl   s Buckingham    Buckingham A     1227.2000    eV        0.000 12.000
                            Buckingham rho  0.32100000    Ang
                            Buckingham C     14.530000    eV*Ang^6

  Number of variables   =   22
  Number of observables =   45

   Observable no.  Type           Observable    Weight       Reference  Confign
          1        Derivative        0.000000        1.0000    2 x         1
          2        Derivative        0.000000        1.0000    2 y         1
          3        Derivative        0.000000        1.0000    2 z         1
          4        Derivative        0.000000        1.0000    3 x         1
          5        Derivative        0.000000        1.0000    3 y         1
          6        Derivative        0.000000        1.0000    3 z         1
          7        Derivative        0.000000        1.0000    4 x         1
          8        Derivative        0.000000        1.0000    4 y         1
          9        Derivative        0.000000        1.0000    4 z         1
         10        Derivative        0.000000        1.0000    5 x         1
         11        Derivative        0.000000        1.0000    5 y         1
         12        Derivative        0.000000        1.0000    5 z         1
         13        Derivative        0.000000        1.0000    6 x         1
         14        Derivative        0.000000        1.0000    6 y         1
         15        Derivative        0.000000        1.0000    6 z         1
         16        Derivative        0.000000        1.0000    7 x         1
         17        Derivative        0.000000        1.0000    7 y         1
         18        Derivative        0.000000        1.0000    7 z         1
         19        Derivative        0.000000        1.0000    8 x         1
         20        Derivative        0.000000        1.0000    8 y         1
         21        Derivative        0.000000        1.0000    8 z         1
         22        Derivative        0.000000        1.0000    9 x         1
         23        Derivative        0.000000        1.0000    9 y         1
         24        Derivative        0.000000        1.0000    9 z         1
         25        Derivative        0.000000        1.0000   10 x         1
         26        Derivative        0.000000        1.0000   10 y         1
         27        Derivative        0.000000        1.0000   10 z         1
         28        Derivative        0.000000        1.0000   11 x         1
         29        Derivative        0.000000        1.0000   11 y         1
         30        Derivative        0.000000        1.0000   11 z         1
         31        Derivative        0.000000        1.0000   12 x         1
         32        Derivative        0.000000        1.0000   12 y         1
         33        Derivative        0.000000        1.0000   12 z         1
         34        Derivative        0.000000        1.0000   13 x         1
         35        Derivative        0.000000        1.0000   13 y         1
         36        Derivative        0.000000        1.0000   13 z         1
         37        Derivative        0.000000        1.0000   14 x         1
         38        Derivative        0.000000        1.0000   14 y         1
         39        Derivative        0.000000        1.0000   14 z         1
         40        Derivative        0.000000        1.0000    a           1
         41        Derivative        0.000000        1.0000    b           1
         42        Derivative        0.000000        1.0000    c           1
         43        Derivative        0.000000        1.0000    alpha       1
         44        Derivative        0.000000        1.0000    beta        1
         45        Derivative        0.000000        1.0000    gamma       1

  Variables :

     Parameter No.       Parameter Value          Parameter Type  Species
             1                 29.380000          Spring k 2
             2              16091.010000          Buckingham A
             3                  0.227400          Buckingham rho
             4                  0.580000          Buckingham C
             5                  0.073700          Shell position    1   9 x
             6                  0.443900          Shell position    1   9 y
             7                  0.705300          Shell position    1   9 z
             8                  0.294700          Shell position    1  10 x
             9                  0.926300          Shell position    1  10 y
            10                  0.556100          Shell position    1  10 z
            11                  0.443900          Shell position    1  11 x
            12                  0.705300          Shell position    1  11 y
            13                  0.073700          Shell position    1  11 z
            14                  0.556100          Shell position    1  12 x
            15                  0.294700          Shell position    1  12 y
            16                  0.926300          Shell position    1  12 z
            17                  0.705300          Shell position    1  13 x
            18                  0.073700          Shell position    1  13 y
            19                  0.443900          Shell position    1  13 z
            20                  0.926300          Shell position    1  14 x
            21                  0.556100          Shell position    1  14 y
            22                  0.294700          Shell position    1  14 z

  Simultaneous optimisation will be performed during fitting
  First derivatives of residuals to be used in fitting

  Maximum no. of cycles   =       5000
  Maximum step size       =  1000.0000
  Tolerance on parameters =  0.0000100
  Tolerance on function   =  0.0000100
  Tolerance on gradient   =  0.0001000
  Differencing interval   =  0.0001000

  Start of fitting :

  ** Hessian calculated **
  ** Hessian calculated **
  ** Hessian calculated **
  ** Hessian calculated **
  ** Hessian calculated **
  ** Hessian calculated **
  ** Hessian calculated **
  ** Hessian calculated **
  ** Hessian calculated **
  ** Hessian calculated **
  ** Hessian calculated **
  ** Hessian calculated **
  ** Hessian calculated **
  ** Hessian calculated **
  ** Hessian calculated **
  ** Hessian calculated **
  ** Hessian calculated **
  ** Hessian calculated **
  ** Hessian calculated **
  ** Hessian calculated **
  ** Hessian calculated **
  ** Hessian calculated **
  ** Hessian calculated **
  ** Hessian calculated **
  ** Hessian calculated **
  ** Hessian calculated **
  ** Hessian calculated **
  ** Hessian calculated **
  ** Hessian calculated **
  ** Hessian calculated **
  ** Hessian calculated **
  ** Hessian calculated **
  ** Hessian calculated **
  ** Hessian calculated **
  ** Hessian calculated **
  ** Hessian calculated **
  ** Hessian calculated **
  ** Hessian calculated **

  **** Fit completed successfully ****

  Final sum of squares =             0.398991

  Final gradient norm  =             6.500331

  Final values of parameters :

 Parameter No.    Parameter        Parameter      Parameter Type  Species
                  Original         Final
         1             29.380000        36.051221 Spring k 2
         2          16091.010000      2292.347506 Buckingham A
         3              0.227400         0.318010 Buckingham rho
         4              0.580000         0.028278 Buckingham C
         5              0.073700         0.064615 Shell position    1   9 x
         6              0.443900         0.451010 Shell position    1   9 y
[...]

  Final values of residuals :

   Observable no.  Type            Observable   Calculated    Residual  Error(%)
          1        Derivative         0.00000     -0.33150      0.10989
          2        Derivative         0.00000     -0.33145      0.10986
          3        Derivative         0.00000     -0.33165      0.10999
          4        Derivative         0.00000     -0.01408      0.00020
          5        Derivative         0.00000      0.00789      0.00006
          6        Derivative         0.00000      0.02675      0.00072
          7        Derivative         0.00000     -0.03312      0.00110
          8        Derivative         0.00000      0.03013      0.00091
          9        Derivative         0.00000      0.03819      0.00146
         10        Derivative         0.00000      0.00746      0.00006
         11        Derivative         0.00000      0.02669      0.00071
         12        Derivative         0.00000     -0.01396      0.00019
         13        Derivative         0.00000      0.03965      0.00157
         14        Derivative         0.00000     -0.03610      0.00130
         15        Derivative         0.00000      0.03190      0.00102
         16        Derivative         0.00000      0.02583      0.00067
         17        Derivative         0.00000     -0.01366      0.00019
         18        Derivative         0.00000      0.00865      0.00007
         19        Derivative         0.00000      0.03098      0.00096
         20        Derivative         0.00000      0.03822      0.00146
         21        Derivative         0.00000     -0.03379      0.00114
         22        Derivative         0.00000      0.05851      0.00342
         23        Derivative         0.00000     -0.08329      0.00694
         24        Derivative         0.00000     -0.01637      0.00027
         25        Derivative         0.00000      0.02068      0.00043
         26        Derivative         0.00000     -0.08080      0.00653
         27        Derivative         0.00000      0.02566      0.00066
         28        Derivative         0.00000     -0.08302      0.00689
         29        Derivative         0.00000     -0.01659      0.00028
         30        Derivative         0.00000      0.05825      0.00339
         31        Derivative         0.00000      0.02369      0.00056
         32        Derivative         0.00000      0.02424      0.00059
         33        Derivative         0.00000     -0.08240      0.00679
         34        Derivative         0.00000     -0.01521      0.00023
         35        Derivative         0.00000      0.05819      0.00339
         36        Derivative         0.00000     -0.08415      0.00708
         37        Derivative         0.00000     -0.08137      0.00662
         38        Derivative         0.00000      0.02548      0.00065
         39        Derivative         0.00000      0.02154      0.00046
         40        Derivative         0.00000     -0.01223      0.00015
         41        Derivative         0.00000      0.00162      0.00000
         42        Derivative         0.00000      0.00417      0.00002
         43        Derivative         0.00000     -0.00290      0.00001
         44        Derivative         0.00000     -0.00601      0.00004
         45        Derivative         0.00000     -0.00871      0.00008

  Comparison of initial and final observables :

   Observable no.  Type            Observable   Initial       Final
          1        Derivative         0.00000     -0.23431     -0.33150
          2        Derivative         0.00000     -0.24207     -0.33145
          3        Derivative         0.00000     -0.24526     -0.33165
          4        Derivative         0.00000    -55.93930     -0.01408
          5        Derivative         0.00000    -43.32978      0.00789
          6        Derivative         0.00000    -70.01709      0.02675
          7        Derivative         0.00000     70.01298     -0.03312
          8        Derivative         0.00000     55.93678      0.03013
          9        Derivative         0.00000     43.32753      0.03819
         10        Derivative         0.00000    -43.32898      0.00746
         11        Derivative         0.00000    -70.01287      0.02669
         12        Derivative         0.00000    -55.93651     -0.01396
         13        Derivative         0.00000     43.32890      0.03965
         14        Derivative         0.00000     70.01298     -0.03610
         15        Derivative         0.00000     55.93536      0.03190
         16        Derivative         0.00000    -70.01287      0.02583
         17        Derivative         0.00000    -55.93792     -0.01366
         18        Derivative         0.00000    -43.32797      0.00865
         19        Derivative         0.00000     55.96373      0.03098
         20        Derivative         0.00000     43.35516      0.03822
         21        Derivative         0.00000     70.05751     -0.03379
         22        Derivative         0.00000     84.63744      0.05851
         23        Derivative         0.00000     66.14431     -0.08329
         24        Derivative         0.00000    105.21764     -0.01637
         25        Derivative         0.00000   -105.21030      0.02068
         26        Derivative         0.00000    -84.63289     -0.08080
         27        Derivative         0.00000    -66.14028      0.02566
         28        Derivative         0.00000     66.14277     -0.08302
         29        Derivative         0.00000    105.21013     -0.01659
         30        Derivative         0.00000     84.63242      0.05825
         31        Derivative         0.00000    -66.14267      0.02369
         32        Derivative         0.00000   -105.21030      0.02424
         33        Derivative         0.00000    -84.63040     -0.08240
         34        Derivative         0.00000    105.21013     -0.01521
         35        Derivative         0.00000     84.63485      0.05819
         36        Derivative         0.00000     66.14107     -0.08415
         37        Derivative         0.00000    -84.66004     -0.08137
         38        Derivative         0.00000    -66.16784      0.02548
         39        Derivative         0.00000   -105.25364      0.02154
         40        Derivative         0.00000     31.46800     -0.01223
         41        Derivative         0.00000     14.92618      0.00162
         42        Derivative         0.00000     12.12799      0.00417
         43        Derivative         0.00000      3.37646     -0.00290
         44        Derivative         0.00000      6.98361     -0.00601
         45        Derivative         0.00000     10.45292     -0.00871

  Maximum range for interatomic potentials =    100000.000000 Angstroms

  General interatomic potentials :

Atom  Types   Potential      Parameter       Value         Units   Cutoffs(Ang)
  1     2                                                            Min /  Max
Cl   c Cl   s Spring (c-s)  Spring k 2       36.051221    eV*Ang^-2 0.000  0.800
                            Spring k 4       0.0000000    eV*Ang^-4
Sc   c Cl   s Buckingham    Buckingham A     2292.3475    eV        0.000 12.000
                            Buckingham rho  0.31800975    Ang
                            Buckingham C    0.28277752E-01eV*Ang^6
Cl   s Cl   s Buckingham    Buckingham A     1227.2000    eV        0.000 12.000
                            Buckingham rho  0.32100000    Ang
                            Buckingham C     14.530000    eV*Ang^6

  Total time to end of fitting =     110.5684 seconds

*  Output for configuration   1                                                *

  Components of energy :

  Interatomic potentials     =          21.51592954 eV
  Monopole - monopole (real) =          81.61666438 eV
  Monopole - monopole (recip)=        -197.17279148 eV
  Monopole - monopole (total)=        -115.55612710 eV
  Total lattice energy       =         -94.04019756 eV
  Total lattice energy       =           -9073.4415 kJ/(mole unit cells)

  Number of variables =       45

  Maximum number of calculations  =          1000
  Maximum Hessian update interval =            10
  Maximum step size               =   1.000000000
  Maximum parameter tolerance     =   0.000010000
  Maximum function  tolerance     =   0.000010000
  Maximum gradient  tolerance     =   0.001000000
  Maximum gradient  component     =   0.010000000

  Cell parameters to be optimised using strains

  Newton-Raphson optimiser to be used

  BFGS hessian update to be used

  Lower half triangular hessian to be used

  Start of bulk optimisation :

  ** Hessian calculated **

  **** Optimisation achieved ****

  Final energy =     -94.04146792 eV
  Final Gnorm  =       0.00007428

  Components of energy :

  Interatomic potentials     =          21.50377245 eV
  Monopole - monopole (real) =          81.04310053 eV
  Monopole - monopole (recip)=        -196.58834090 eV
  Monopole - monopole (total)=        -115.54524037 eV
  Total lattice energy       =         -94.04146792 eV
  Total lattice energy       =           -9073.5641 kJ/(mole unit cells)

  Final fractional coordinates of atoms :

   No.  Atomic        x           y          z          Radius
        Label       (Frac)      (Frac)     (Frac)       (Angs)
     1  Sc    c     0.333900    0.333900    0.333900    0.000000
     2  Sc    c     0.667806    0.667806    0.667806    0.000000
     3  Cl    c     0.075377    0.445588    0.703465    0.000000
     4  Cl    c     0.298240    0.926329    0.556117    0.000000
     5  Cl    c     0.445588    0.703464    0.075377    0.000000
     6  Cl    c     0.556117    0.298242    0.926328    0.000000
     7  Cl    c     0.703465    0.075376    0.445588    0.000000
     8  Cl    c     0.926328    0.556118    0.298241    0.000000
     9  Cl    s     0.065668    0.452757    0.677304    0.000000
    10  Cl    s     0.324402    0.936039    0.548948    0.000000
    11  Cl    s     0.452757    0.677303    0.065668    0.000000
    12  Cl    s     0.548948    0.324403    0.936038    0.000000
    13  Cl    s     0.677304    0.065667    0.452757    0.000000
    14  Cl    s     0.936038    0.548949    0.324402    0.000000

  Final Cartesian lattice vectors (Angstroms) :

        7.497710    0.019308    0.012891
        4.667403    5.867840    0.012893
        4.667398    2.258728    5.415695

  Final cell parameters and derivatives :

       a            7.497746 Angstrom     dE/de1(xx)     0.000450 eV/strain
       b            7.497758 Angstrom     dE/de2(yy)     0.000336 eV/strain
       c            7.497747 Angstrom     dE/de3(zz)     0.000337 eV/strain
       alpha       51.352890 Degrees      dE/de4(yz)     0.000031 eV/strain
       beta        51.352929 Degrees      dE/de5(xz)     0.000038 eV/strain
       gamma       51.352896 Degrees      dE/de6(xy)     0.000063 eV/strain

  Primitive cell volume =           237.343081 Angs**3

  Density of cell =      2.117274 g/cm**3

  Non-primitive cell volume =           237.343081 Angs**3

  Final internal derivatives :

   No.  Atomic          a             b             c           Radius
        Label          (eV)          (eV)          (eV)        (eV/Angs)
      1 Sc    c       0.000000      0.000000      0.000000      0.000000
      2 Sc    c      -0.000369     -0.000307     -0.000379      0.000000
      3 Cl    c      -0.000073     -0.000315     -0.000241      0.000000
      4 Cl    c       0.000308      0.000131      0.000315      0.000000
      5 Cl    c      -0.000309     -0.000230     -0.000094      0.000000
      6 Cl    c       0.000288      0.000248      0.000094      0.000000
      7 Cl    c      -0.000292     -0.000131     -0.000337      0.000000
      8 Cl    c       0.000071      0.000293      0.000257      0.000000
      9 Cl    s       0.000601      0.000681      0.000842      0.000000
     10 Cl    s      -0.000884     -0.000630     -0.000657      0.000000
     11 Cl    s       0.000670      0.000824      0.000613      0.000000
     12 Cl    s      -0.000647     -0.000847     -0.000617      0.000000
     13 Cl    s       0.000864      0.000628      0.000682      0.000000
     14 Cl    s      -0.000603     -0.000655     -0.000861      0.000000
  Maximum abs         0.000884      0.000847      0.000861      0.000000

  Comparison of initial and final structures :

  Parameter   Initial value   Final value   Difference    Units      Percent
    Volume       235.198534    237.343081     2.144547    Angs**3      0.91
    a              7.453000      7.497746     0.044746    Angstroms    0.60
    b              7.453000      7.497758     0.044758    Angstroms    0.60
    c              7.453000      7.497747     0.044747    Angstroms    0.60
    alpha         51.648000     51.352890    -0.295110    Degrees     -0.57
    beta          51.648000     51.352929    -0.295071    Degrees     -0.57
    gamma         51.648000     51.352896    -0.295104    Degrees     -0.57
      1 x          0.333900      0.333900     0.000000    Fractional   0.00
      1 y          0.333900      0.333900     0.000000    Fractional   0.00
      1 z          0.333900      0.333900     0.000000    Fractional   0.00
      2 x          0.666100      0.667806     0.001706    Fractional   0.26
      2 y          0.666100      0.667806     0.001706    Fractional   0.26
      2 z          0.666100      0.667806     0.001706    Fractional   0.26
      3 x          0.073700      0.075377     0.001677    Fractional   2.28
      3 y          0.443900      0.445588     0.001688    Fractional   0.38
      3 z          0.705300      0.703465     0.001835    Fractional   0.26
      4 x          0.294700      0.298240     0.003540    Fractional   1.20
      4 y          0.926300      0.926329     0.000029    Fractional   0.00
      4 z          0.556100      0.556117     0.000017    Fractional   0.00
      5 x          0.443900      0.445588     0.001688    Fractional   0.38
      5 y          0.705300      0.703464     0.001836    Fractional   0.26
      5 z          0.073700      0.075377     0.001677    Fractional   2.28
      6 x          0.556100      0.556117     0.000017    Fractional   0.00
      6 y          0.294700      0.298242     0.003542    Fractional   1.20
      6 z          0.926300      0.926328     0.000028    Fractional   0.00
      7 x          0.705300      0.703465     0.001835    Fractional   0.26
      7 y          0.073700      0.075376     0.001676    Fractional   2.27
      7 z          0.443900      0.445588     0.001688    Fractional   0.38
      8 x          0.926300      0.926328     0.000028    Fractional   0.00
      8 y          0.556100      0.556118     0.000018    Fractional   0.00
      8 z          0.294700      0.298241     0.003541    Fractional   1.20
      9 x          0.064615      0.065668     0.001053    Fractional   1.63
      9 y          0.451010      0.452757     0.001747    Fractional   0.39
      9 z          0.678492      0.677304     0.001189    Fractional   0.18
     10 x          0.321539      0.324402     0.002862    Fractional   0.89
     10 y          0.935384      0.936039     0.000655    Fractional   0.07
     10 z          0.548947      0.548948     0.000002    Fractional   0.00
     11 x          0.451011      0.452757     0.001746    Fractional   0.39
     11 y          0.678492      0.677303     0.001189    Fractional   0.18
     11 z          0.064614      0.065668     0.001053    Fractional   1.63
     12 x          0.548945      0.548948     0.000003    Fractional   0.00
     12 y          0.321543      0.324403     0.002859    Fractional   0.89
     12 z          0.935381      0.936038     0.000657    Fractional   0.07
     13 x          0.678494      0.677304     0.001190    Fractional   0.18
     13 y          0.064614      0.065667     0.001053    Fractional   1.63
     13 z          0.451009      0.452757     0.001748    Fractional   0.39
     14 x          0.935382      0.936038     0.000656    Fractional   0.07
     14 y          0.548947      0.548949     0.000002    Fractional   0.00
     14 z          0.321540      0.324402     0.002862    Fractional   0.89

  Time to end of optimisation =     110.6006 seconds

  Timing analysis for GULP :

  Task / Subroutine                                          Time (Seconds)
  Calculation of reciprocal space energy and derivatives          3.5541
  Calculation of real space energy and derivatives              106.0055
  Sum of squares for fitting                                      0.8249
  Global summation overhead                                       0.0192

  Dump file written as ScCl3.grs

  Job Finished at 17:24.48  7th February   2022