  Job Started  at 13:05.56 19th April      2022

  Number of CPUs =     1

  Total number of configurations input =      1

*  Input for Configuration =   1                                               *

  Formula = Sc2Cl6

  Number of irreducible atoms/shells =      14

  Total number atoms/shells =      14

  Dimensionality = 3               :  Bulk

  Cartesian lattice vectors (Angstroms) :

        7.453000    0.000000    0.000000
        4.624520    5.844744    0.000000
        4.624520    2.237970    5.399307

  Cell parameters (Angstroms/Degrees):

  a =       7.4530    alpha =  51.6480
  b =       7.4530    beta  =  51.6480
  c =       7.4530    gamma =  51.6480

  Initial cell volume =         235.198534 Angs**3

  Temperature of configuration =   0.00     K

  Pressure of configuration =         0.000 GPa

  Fractional coordinates of asymmetric unit :

   No.  Atomic       x           y          z         Charge      Occupancy
        Label      (Frac)      (Frac)     (Frac)        (e)         (Frac)
      1 Sc    c    0.333900    0.333900    0.333900     3.00000    1.000000
      2 Sc    c    0.666100 *  0.666100 *  0.666100 *   3.00000    1.000000
      3 Cl    c    0.073700 *  0.443900 *  0.705300 *   1.48500    1.000000
      4 Cl    c    0.294700 *  0.926300 *  0.556100 *   1.48500    1.000000
      5 Cl    c    0.443900 *  0.705300 *  0.073700 *   1.48500    1.000000
      6 Cl    c    0.556100 *  0.294700 *  0.926300 *   1.48500    1.000000
      7 Cl    c    0.705300 *  0.073700 *  0.443900 *   1.48500    1.000000
      8 Cl    c    0.926300 *  0.556100 *  0.294700 *   1.48500    1.000000
      9 Cl    s    0.073700 *  0.443900 *  0.705300 *  -2.48500    1.000000
     10 Cl    s    0.294700 *  0.926300 *  0.556100 *  -2.48500    1.000000
     11 Cl    s    0.443900 *  0.705300 *  0.073700 *  -2.48500    1.000000
     12 Cl    s    0.556100 *  0.294700 *  0.926300 *  -2.48500    1.000000
     13 Cl    s    0.705300 *  0.073700 *  0.443900 *  -2.48500    1.000000
     14 Cl    s    0.926300 *  0.556100 *  0.294700 *  -2.48500    1.000000

*  General input information                                                   *

  Species output for all configurations :

  Species    Type    Atomic    Atomic    Charge       Radii (Angs)     Library
                     Number     Mass       (e)     Cova   Ionic  VDW   Symbol
    Sc       Core       21      44.96   3.000000   1.440  0.000  2.150
    Cl       Core       17      35.45   1.485000   0.990  0.000  1.650
    Cl       Shell      17       0.00  -2.485000   0.990  0.000  1.650

  Lattice summation method               =    Ewald          (3-D)
                                         =    Parry          (2-D)
                                         =    Saunders et al (1-D)
  Accuracy factor for lattice sums       =   12.000

  Analytic derivatives to be used

  Time limit = Infinity

  Maximum range for interatomic potentials =    100000.000000 Angstroms

  General interatomic potentials :

Atom  Types   Potential      Parameter       Value         Units   Cutoffs(Ang)
  1     2                                                            Min /  Max
Cl   c Cl   s Spring (c-s)  Spring k 2       29.380000    eV*Ang^-2 0.000  0.800
                            Spring k 4       0.0000000    eV*Ang^-4
Sc   c Cl   s Buckingham    Buckingham A     16091.010    eV        0.000 12.000
                            Buckingham rho  0.22740000    Ang
                            Buckingham C    0.58000000    eV*Ang^6
Cl   s Cl   s Buckingham    Buckingham A     1227.2000    eV        0.000 12.000
                            Buckingham rho  0.32100000    Ang
                            Buckingham C     14.530000    eV*Ang^6

  Number of variables   =   21
  Number of observables =   45

   Observable no.  Type           Observable    Weight       Reference  Confign
          1        Derivative        0.000000        1.0000    2 x         1
          2        Derivative        0.000000        1.0000    2 y         1
          3        Derivative        0.000000        1.0000    2 z         1
          4        Derivative        0.000000        1.0000    3 x         1
          5        Derivative        0.000000        1.0000    3 y         1
          6        Derivative        0.000000        1.0000    3 z         1
          7        Derivative        0.000000        1.0000    4 x         1
          8        Derivative        0.000000        1.0000    4 y         1
          9        Derivative        0.000000        1.0000    4 z         1
         10        Derivative        0.000000        1.0000    5 x         1
         11        Derivative        0.000000        1.0000    5 y         1
         12        Derivative        0.000000        1.0000    5 z         1
         13        Derivative        0.000000        1.0000    6 x         1
         14        Derivative        0.000000        1.0000    6 y         1
         15        Derivative        0.000000        1.0000    6 z         1
         16        Derivative        0.000000        1.0000    7 x         1
         17        Derivative        0.000000        1.0000    7 y         1
         18        Derivative        0.000000        1.0000    7 z         1
         19        Derivative        0.000000        1.0000    8 x         1
         20        Derivative        0.000000        1.0000    8 y         1
         21        Derivative        0.000000        1.0000    8 z         1
         22        Derivative        0.000000        1.0000    9 x         1
         23        Derivative        0.000000        1.0000    9 y         1
         24        Derivative        0.000000        1.0000    9 z         1
         25        Derivative        0.000000        1.0000   10 x         1
         26        Derivative        0.000000        1.0000   10 y         1
         27        Derivative        0.000000        1.0000   10 z         1
         28        Derivative        0.000000        1.0000   11 x         1
         29        Derivative        0.000000        1.0000   11 y         1
         30        Derivative        0.000000        1.0000   11 z         1
         31        Derivative        0.000000        1.0000   12 x         1
         32        Derivative        0.000000        1.0000   12 y         1
         33        Derivative        0.000000        1.0000   12 z         1
         34        Derivative        0.000000        1.0000   13 x         1
         35        Derivative        0.000000        1.0000   13 y         1
         36        Derivative        0.000000        1.0000   13 z         1
         37        Derivative        0.000000        1.0000   14 x         1
         38        Derivative        0.000000        1.0000   14 y         1
         39        Derivative        0.000000        1.0000   14 z         1
         40        Derivative        0.000000        1.0000    a           1
         41        Derivative        0.000000        1.0000    b           1
         42        Derivative        0.000000        1.0000    c           1
         43        Derivative        0.000000        1.0000    alpha       1
         44        Derivative        0.000000        1.0000    beta        1
         45        Derivative        0.000000        1.0000    gamma       1

  Variables :

     Parameter No.       Parameter Value          Parameter Type  Species
             1              16091.010000          Buckingham A
             2                  0.227400          Buckingham rho
             3                  0.580000          Buckingham C
             4                  0.073700          Shell position    1   9 x
             5                  0.443900          Shell position    1   9 y
             6                  0.705300          Shell position    1   9 z
             7                  0.294700          Shell position    1  10 x
             8                  0.926300          Shell position    1  10 y
             9                  0.556100          Shell position    1  10 z
            10                  0.443900          Shell position    1  11 x
            11                  0.705300          Shell position    1  11 y
            12                  0.073700          Shell position    1  11 z
            13                  0.556100          Shell position    1  12 x
            14                  0.294700          Shell position    1  12 y
            15                  0.926300          Shell position    1  12 z
            16                  0.705300          Shell position    1  13 x
            17                  0.073700          Shell position    1  13 y
            18                  0.443900          Shell position    1  13 z
            19                  0.926300          Shell position    1  14 x
            20                  0.556100          Shell position    1  14 y
            21                  0.294700          Shell position    1  14 z

  Simultaneous optimisation will be performed during fitting
  First derivatives of residuals to be used in fitting

  Maximum no. of cycles   =       5000
  Maximum step size       =  1000.0000
  Tolerance on parameters =  0.0000100
  Tolerance on function   =  0.0000100
  Tolerance on gradient   =  0.0001000
  Differencing interval   =  0.0001000

  Start of fitting :

  ** Hessian calculated **
  ** Hessian calculated **
  ** Hessian calculated **
  ** Hessian calculated **
  ** Hessian calculated **
  ** Hessian calculated **
  ** Hessian calculated **
  ** Hessian calculated **
  ** Hessian calculated **
  ** Hessian calculated **
  ** Hessian calculated **
  ** Hessian calculated **
  ** Hessian calculated **
  ** Hessian calculated **
  ** Hessian calculated **
  ** Hessian calculated **
  ** Hessian calculated **

  **** Fit completed successfully ****

  Final sum of squares =            38.146736

  Final gradient norm  =            24.273134

  Final values of parameters :

 Parameter No.    Parameter        Parameter      Parameter Type  Species
                  Original         Final
         1          16091.010000      9020.503462 Buckingham A
         2              0.227400         0.259884 Buckingham rho
         3              0.580000         0.000068 Buckingham C
         4              0.073700         0.063206 Shell position    1   9 x
         5              0.443900         0.453091 Shell position    1   9 y
         6              0.705300         0.673544 Shell position    1   9 z
         7              0.294700         0.326497 Shell position    1  10 x
         8              0.926300         0.936728 Shell position    1  10 y
         9              0.556100         0.546881 Shell position    1  10 z
        10              0.443900         0.453058 Shell position    1  11 x
        11              0.705300         0.673534 Shell position    1  11 y
        12              0.073700         0.063252 Shell position    1  11 z
        13              0.556100         0.546855 Shell position    1  12 x
        14              0.294700         0.326512 Shell position    1  12 y
[...]

  Final values of residuals :

   Observable no.  Type            Observable   Calculated    Residual  Error(%)
          1        Derivative         0.00000     -0.58928      0.34725
          2        Derivative         0.00000     -0.58446      0.34160
          3        Derivative         0.00000     -0.59260      0.35118
          4        Derivative         0.00000     -0.69218      0.47912
          5        Derivative         0.00000     -0.58991      0.34799
          6        Derivative         0.00000     -0.83996      0.70553
          7        Derivative         0.00000      0.86731      0.75222
          8        Derivative         0.00000      0.77501      0.60065
          9        Derivative         0.00000      0.65581      0.43008
         10        Derivative         0.00000     -0.57322      0.32858
         11        Derivative         0.00000     -0.83248      0.69302
         12        Derivative         0.00000     -0.71873      0.51658
         13        Derivative         0.00000      0.67061      0.44972
         14        Derivative         0.00000      0.85399      0.72930
         15        Derivative         0.00000      0.77087      0.59425
         16        Derivative         0.00000     -0.84001      0.70562
         17        Derivative         0.00000     -0.73000      0.53290
         18        Derivative         0.00000     -0.55871      0.31216
         19        Derivative         0.00000      0.74844      0.56016
         20        Derivative         0.00000      0.68017      0.46263
         21        Derivative         0.00000      0.86380      0.74616
         22        Derivative         0.00000     -0.40744      0.16601
         23        Derivative         0.00000     -0.56962      0.32447
         24        Derivative         0.00000     -0.59302      0.35167
         25        Derivative         0.00000      0.54561      0.29769
         26        Derivative         0.00000      0.30073      0.09044
         27        Derivative         0.00000      0.47682      0.22736
         28        Derivative         0.00000     -0.58790      0.34563
         29        Derivative         0.00000     -0.60146      0.36176
         30        Derivative         0.00000     -0.37778      0.14271
         31        Derivative         0.00000      0.46126      0.21276
         32        Derivative         0.00000      0.56913      0.32390
         33        Derivative         0.00000      0.30909      0.09554
         34        Derivative         0.00000     -0.58439      0.34151
         35        Derivative         0.00000     -0.36204      0.13107
         36        Derivative         0.00000     -0.60317      0.36382
         37        Derivative         0.00000      0.33433      0.11178
         38        Derivative         0.00000      0.45113      0.20352
         39        Derivative         0.00000      0.55786      0.31120
         40        Derivative         0.00000     -0.22598      0.05107
         41        Derivative         0.00000      2.69265      7.25034
         42        Derivative         0.00000      3.18655     10.15407
         43        Derivative         0.00000     -0.59752      0.35703
         44        Derivative         0.00000     -1.23491      1.52500
         45        Derivative         0.00000     -1.84925      3.41971

  Comparison of initial and final observables :

   Observable no.  Type            Observable   Initial       Final
          1        Derivative         0.00000     -0.23431     -0.58928
          2        Derivative         0.00000     -0.24207     -0.58446
          3        Derivative         0.00000     -0.24526     -0.59260
          4        Derivative         0.00000    -55.93930     -0.69218
          5        Derivative         0.00000    -43.32978     -0.58991
          6        Derivative         0.00000    -70.01709     -0.83996
          7        Derivative         0.00000     70.01298      0.86731
          8        Derivative         0.00000     55.93678      0.77501
          9        Derivative         0.00000     43.32753      0.65581
         10        Derivative         0.00000    -43.32898     -0.57322
         11        Derivative         0.00000    -70.01287     -0.83248
         12        Derivative         0.00000    -55.93651     -0.71873
         13        Derivative         0.00000     43.32890      0.67061
         14        Derivative         0.00000     70.01298      0.85399
         15        Derivative         0.00000     55.93536      0.77087
         16        Derivative         0.00000    -70.01287     -0.84001
         17        Derivative         0.00000    -55.93792     -0.73000
         18        Derivative         0.00000    -43.32797     -0.55871
         19        Derivative         0.00000     55.96373      0.74844
         20        Derivative         0.00000     43.35516      0.68017
         21        Derivative         0.00000     70.05751      0.86380
         22        Derivative         0.00000     84.63744     -0.40744
         23        Derivative         0.00000     66.14431     -0.56962
         24        Derivative         0.00000    105.21764     -0.59302
         25        Derivative         0.00000   -105.21030      0.54561
         26        Derivative         0.00000    -84.63289      0.30073
         27        Derivative         0.00000    -66.14028      0.47682
         28        Derivative         0.00000     66.14277     -0.58790
         29        Derivative         0.00000    105.21013     -0.60146
         30        Derivative         0.00000     84.63242     -0.37778
         31        Derivative         0.00000    -66.14267      0.46126
         32        Derivative         0.00000   -105.21030      0.56913
         33        Derivative         0.00000    -84.63040      0.30909
         34        Derivative         0.00000    105.21013     -0.58439
         35        Derivative         0.00000     84.63485     -0.36204
         36        Derivative         0.00000     66.14107     -0.60317
         37        Derivative         0.00000    -84.66004      0.33433
         38        Derivative         0.00000    -66.16784      0.45113
         39        Derivative         0.00000   -105.25364      0.55786
         40        Derivative         0.00000     31.46800     -0.22598
         41        Derivative         0.00000     14.92618      2.69265
         42        Derivative         0.00000     12.12799      3.18655
         43        Derivative         0.00000      3.37646     -0.59752
         44        Derivative         0.00000      6.98361     -1.23491
         45        Derivative         0.00000     10.45292     -1.84925

  Maximum range for interatomic potentials =    100000.000000 Angstroms

  General interatomic potentials :

Atom  Types   Potential      Parameter       Value         Units   Cutoffs(Ang)
  1     2                                                            Min /  Max
Cl   c Cl   s Spring (c-s)  Spring k 2       29.380000    eV*Ang^-2 0.000  0.800
                            Spring k 4       0.0000000    eV*Ang^-4
Sc   c Cl   s Buckingham    Buckingham A     9020.5035    eV        0.000 12.000
                            Buckingham rho  0.25988424    Ang
                            Buckingham C    0.68018727E-04eV*Ang^6
Cl   s Cl   s Buckingham    Buckingham A     1227.2000    eV        0.000 12.000
                            Buckingham rho  0.32100000    Ang
                            Buckingham C     14.530000    eV*Ang^6

  Total time to end of fitting =      45.1545 seconds

*  Output for configuration   1                                                *

  Components of energy :

  Interatomic potentials     =          19.05877669 eV
  Monopole - monopole (real) =          79.13283718 eV
  Monopole - monopole (recip)=        -197.46020121 eV
  Monopole - monopole (total)=        -118.32736403 eV
  Total lattice energy       =         -99.26858734 eV
  Total lattice energy       =           -9577.9012 kJ/(mole unit cells)

  Number of variables =       45

  Maximum number of calculations  =          1000
  Maximum Hessian update interval =            10
  Maximum step size               =   1.000000000
  Maximum parameter tolerance     =   0.000010000
  Maximum function  tolerance     =   0.000010000
  Maximum gradient  tolerance     =   0.001000000
  Maximum gradient  component     =   0.010000000

  Cell parameters to be optimised using strains

  Newton-Raphson optimiser to be used

  BFGS hessian update to be used

  Lower half triangular hessian to be used

  Start of bulk optimisation :

  ** Hessian calculated **

  **** Optimisation achieved ****

  Final energy =     -99.41852041 eV
  Final Gnorm  =       0.00005250

  Components of energy :

  Interatomic potentials     =          21.07824245 eV
  Monopole - monopole (real) =          80.98570897 eV
  Monopole - monopole (recip)=        -201.48247183 eV
  Monopole - monopole (total)=        -120.49676285 eV
  Total lattice energy       =         -99.41852041 eV
  Total lattice energy       =           -9592.3675 kJ/(mole unit cells)

  Final fractional coordinates of atoms :

   No.  Atomic        x           y          z          Radius
        Label       (Frac)      (Frac)     (Frac)       (Angs)
     1  Sc    c     0.333900    0.333900    0.333900    0.000000
     2  Sc    c     0.667298    0.667298    0.667298    0.000000
     3  Cl    c     0.077952    0.441081    0.714485    0.000000
     4  Cl    c     0.286675    0.923291    0.560108    0.000000
     5  Cl    c     0.441125    0.714478    0.077915    0.000000
     6  Cl    c     0.560072    0.286720    0.923283    0.000000
     7  Cl    c     0.714523    0.077907    0.441090    0.000000
     8  Cl    c     0.923245    0.560116    0.286712    0.000000
     9  Cl    s     0.065888    0.450743    0.680819    0.000000
    10  Cl    s     0.320347    0.935348    0.550448    0.000000
    11  Cl    s     0.450780    0.680813    0.065857    0.000000
    12  Cl    s     0.550418    0.320385    0.935341    0.000000
    13  Cl    s     0.680851    0.065850    0.450750    0.000000
    14  Cl    s     0.935309    0.550455    0.320379    0.000000

  Final Cartesian lattice vectors (Angstroms) :

        7.404099    0.089702    0.059856
        4.664523    5.751415    0.059940
        4.664475    2.257644    5.290033

  Final cell parameters and derivatives :

       a            7.404884 Angstrom     dE/de1(xx)     0.000191 eV/strain
       b            7.405412 Angstrom     dE/de2(yy)     0.000120 eV/strain
       c            7.405317 Angstrom     dE/de3(zz)     0.000084 eV/strain
       alpha       50.259770 Degrees      dE/de4(yz)     0.000009 eV/strain
       beta        50.261664 Degrees      dE/de5(xz)     0.000035 eV/strain
       gamma       50.261320 Degrees      dE/de6(xy)     0.000026 eV/strain

  Primitive cell volume =           221.105225 Angs**3

  Density of cell =      2.272765 g/cm**3

  Non-primitive cell volume =           221.105225 Angs**3

  Final internal derivatives :

   No.  Atomic          a             b             c           Radius
        Label          (eV)          (eV)          (eV)        (eV/Angs)
      1 Sc    c       0.000000      0.000000      0.000000      0.000000
      2 Sc    c      -0.001212     -0.001221     -0.001200      0.000000
      3 Cl    c       0.000386     -0.000088     -0.000104      0.000000
      4 Cl    c       0.000092     -0.000315      0.000081      0.000000
      5 Cl    c      -0.000102     -0.000159      0.000295      0.000000
      6 Cl    c       0.000107      0.000157     -0.000292      0.000000
      7 Cl    c      -0.000093      0.000321     -0.000074      0.000000
      8 Cl    c      -0.000382      0.000094      0.000101      0.000000
      9 Cl    s       0.000179      0.000093      0.000104      0.000000
     10 Cl    s      -0.000102     -0.000216     -0.000089      0.000000
     11 Cl    s       0.000041      0.000086      0.000177      0.000000
     12 Cl    s      -0.000046     -0.000076     -0.000177      0.000000
     13 Cl    s       0.000113      0.000216      0.000084      0.000000
     14 Cl    s      -0.000180     -0.000100     -0.000096      0.000000
  Maximum abs         0.001212      0.001221      0.001200      0.000000

  Comparison of initial and final structures :

  Parameter   Initial value   Final value   Difference    Units      Percent
    Volume       235.198534    221.105225   -14.093310    Angs**3     -5.99
    a              7.453000      7.404884    -0.048116    Angstroms   -0.65
    b              7.453000      7.405412    -0.047588    Angstroms   -0.64
    c              7.453000      7.405317    -0.047683    Angstroms   -0.64
    alpha         51.648000     50.259770    -1.388230    Degrees     -2.69
    beta          51.648000     50.261664    -1.386336    Degrees     -2.68
    gamma         51.648000     50.261320    -1.386680    Degrees     -2.68
      1 x          0.333900      0.333900     0.000000    Fractional   0.00
      1 y          0.333900      0.333900     0.000000    Fractional   0.00
      1 z          0.333900      0.333900     0.000000    Fractional   0.00
      2 x          0.666100      0.667298     0.001198    Fractional   0.18
      2 y          0.666100      0.667298     0.001198    Fractional   0.18
      2 z          0.666100      0.667298     0.001198    Fractional   0.18
      3 x          0.073700      0.077952     0.004252    Fractional   5.77
      3 y          0.443900      0.441081     0.002819    Fractional   0.63
      3 z          0.705300      0.714485     0.009185    Fractional   1.30
      4 x          0.294700      0.286675     0.008025    Fractional   2.72
      4 y          0.926300      0.923291     0.003009    Fractional   0.32
      4 z          0.556100      0.560108     0.004008    Fractional   0.72
      5 x          0.443900      0.441125     0.002775    Fractional   0.63
      5 y          0.705300      0.714478     0.009178    Fractional   1.30
      5 z          0.073700      0.077915     0.004215    Fractional   5.72
      6 x          0.556100      0.560072     0.003972    Fractional   0.71
      6 y          0.294700      0.286720     0.007980    Fractional   2.71
      6 z          0.926300      0.923283     0.003017    Fractional   0.33
      7 x          0.705300      0.714523     0.009223    Fractional   1.31
      7 y          0.073700      0.077907     0.004207    Fractional   5.71
      7 z          0.443900      0.441090     0.002810    Fractional   0.63
      8 x          0.926300      0.923245     0.003055    Fractional   0.33
      8 y          0.556100      0.560116     0.004016    Fractional   0.72
      8 z          0.294700      0.286712     0.007988    Fractional   2.71
      9 x          0.063206      0.065888     0.002683    Fractional   4.24
      9 y          0.453091      0.450743     0.002348    Fractional   0.52
      9 z          0.673544      0.680819     0.007276    Fractional   1.08
     10 x          0.326497      0.320347     0.006150    Fractional   1.88
     10 y          0.936728      0.935348     0.001380    Fractional   0.15
     10 z          0.546881      0.550448     0.003567    Fractional   0.65
     11 x          0.453058      0.450780     0.002277    Fractional   0.50
     11 y          0.673534      0.680813     0.007279    Fractional   1.08
     11 z          0.063252      0.065857     0.002605    Fractional   4.12
     12 x          0.546855      0.550418     0.003562    Fractional   0.65
     12 y          0.326512      0.320385     0.006127    Fractional   1.88
     12 z          0.936734      0.935341     0.001393    Fractional   0.15
     13 x          0.673536      0.680851     0.007315    Fractional   1.09
     13 y          0.063272      0.065850     0.002578    Fractional   4.07
     13 z          0.453032      0.450750     0.002282    Fractional   0.50
     14 x          0.936772      0.935309     0.001463    Fractional   0.16
     14 y          0.546836      0.550455     0.003619    Fractional   0.66
     14 z          0.326497      0.320379     0.006118    Fractional   1.87

  Time to end of optimisation =      45.2206 seconds

  Timing analysis for GULP :

  Task / Subroutine                                          Time (Seconds)
  Calculation of reciprocal space energy and derivatives          1.3951
  Calculation of real space energy and derivatives               43.4493
  Sum of squares for fitting                                      0.2994
  Global summation overhead                                       0.0069

  Dump file written as ScCl3.grs

  Job Finished at 13:06.41 19th April      2022