  Job Started  at 14:57.49 23rd March      2022

  Number of CPUs =     1

  Total number of configurations input =      1

*  Input for Configuration =   1                                               *

  Formula = Sc2Cl6

  Number of irreducible atoms/shells =      14

  Total number atoms/shells =      14

  Dimensionality = 3               :  Bulk

  Cartesian lattice vectors (Angstroms) :

        3.246588    1.874418    6.441540
       -3.246588    1.874418    6.441540
        0.000000   -3.748837    6.441540

  Cell parameters (Angstroms/Degrees):

  a =       7.4530    alpha =  51.6480
  b =       7.4530    beta  =  51.6480
  c =       7.4530    gamma =  51.6480

  Initial cell volume =         235.198534 Angs**3

  Temperature of configuration =   0.00     K

  Pressure of configuration =         0.000 GPa

  Fractional coordinates of asymmetric unit :

   No.  Atomic       x           y          z         Charge      Occupancy
        Label      (Frac)      (Frac)     (Frac)        (e)         (Frac)
      1 Sc    c    0.333900    0.333900    0.333900     3.00000    1.000000
      2 Sc    c    0.666100 *  0.666100 *  0.666100 *   3.00000    1.000000
      3 Cl    c    0.073700 *  0.443900 *  0.705300 *   1.48500    1.000000
      4 Cl    c    0.705300 *  0.073700 *  0.443900 *   1.48500    1.000000
      5 Cl    c    0.443900 *  0.705300 *  0.073700 *   1.48500    1.000000
      6 Cl    c    0.926300 *  0.556100 *  0.294700 *   1.48500    1.000000
      7 Cl    c    0.294700 *  0.926300 *  0.556100 *   1.48500    1.000000
      8 Cl    c    0.556100 *  0.294700 *  0.926300 *   1.48500    1.000000
      9 Cl    s    0.073700 *  0.443900 *  0.705300 *  -2.48500    1.000000
     10 Cl    s    0.705300 *  0.073700 *  0.443900 *  -2.48500    1.000000
     11 Cl    s    0.443900 *  0.705300 *  0.073700 *  -2.48500    1.000000
     12 Cl    s    0.926300 *  0.556100 *  0.294700 *  -2.48500    1.000000
     13 Cl    s    0.294700 *  0.926300 *  0.556100 *  -2.48500    1.000000
     14 Cl    s    0.556100 *  0.294700 *  0.926300 *  -2.48500    1.000000

*  General input information                                                   *

  Species output for all configurations :

  Species    Type    Atomic    Atomic    Charge       Radii (Angs)     Library
                     Number     Mass       (e)     Cova   Ionic  VDW   Symbol
    Sc       Core       21      44.96   3.000000   1.440  0.000  2.150
    Cl       Core       17      35.45   1.485000   0.990  0.000  1.650
    Cl       Shell      17       0.00  -2.485000   0.990  0.000  1.650

  Lattice summation method               =    Ewald          (3-D)
                                         =    Parry          (2-D)
                                         =    Saunders et al (1-D)
  Accuracy factor for lattice sums       =   12.000

  Analytic derivatives to be used

  Time limit = Infinity

  Maximum range for interatomic potentials =    100000.000000 Angstroms

  General interatomic potentials :

Atom  Types   Potential      Parameter       Value         Units   Cutoffs(Ang)
  1     2                                                            Min /  Max
Cl   c Cl   s Spring (c-s)  Spring k 2       29.380000    eV*Ang^-2 0.000  0.800
                            Spring k 4       0.0000000    eV*Ang^-4
Sc   c Cl   s Buckingham    Buckingham A     1736.1200    eV        0.000 12.000
                            Buckingham rho  0.29270000    Ang
                            Buckingham C     0.0000000    eV*Ang^6
Cl   s Cl   s Buckingham    Buckingham A     1227.2000    eV        0.000 12.000
                            Buckingham rho  0.32100000    Ang
                            Buckingham C     14.530000    eV*Ang^6

  Number of variables   =   20
  Number of observables =   45

   Observable no.  Type           Observable    Weight       Reference  Confign
          1        Derivative        0.000000        1.0000    2 x         1
          2        Derivative        0.000000        1.0000    2 y         1
          3        Derivative        0.000000        1.0000    2 z         1
          4        Derivative        0.000000        1.0000    3 x         1
          5        Derivative        0.000000        1.0000    3 y         1
          6        Derivative        0.000000        1.0000    3 z         1
          7        Derivative        0.000000        1.0000    4 x         1
          8        Derivative        0.000000        1.0000    4 y         1
          9        Derivative        0.000000        1.0000    4 z         1
         10        Derivative        0.000000        1.0000    5 x         1
         11        Derivative        0.000000        1.0000    5 y         1
         12        Derivative        0.000000        1.0000    5 z         1
         13        Derivative        0.000000        1.0000    6 x         1
         14        Derivative        0.000000        1.0000    6 y         1
         15        Derivative        0.000000        1.0000    6 z         1
         16        Derivative        0.000000        1.0000    7 x         1
         17        Derivative        0.000000        1.0000    7 y         1
         18        Derivative        0.000000        1.0000    7 z         1
         19        Derivative        0.000000        1.0000    8 x         1
         20        Derivative        0.000000        1.0000    8 y         1
         21        Derivative        0.000000        1.0000    8 z         1
         22        Derivative        0.000000        1.0000    9 x         1
         23        Derivative        0.000000        1.0000    9 y         1
         24        Derivative        0.000000        1.0000    9 z         1
         25        Derivative        0.000000        1.0000   10 x         1
         26        Derivative        0.000000        1.0000   10 y         1
         27        Derivative        0.000000        1.0000   10 z         1
         28        Derivative        0.000000        1.0000   11 x         1
         29        Derivative        0.000000        1.0000   11 y         1
         30        Derivative        0.000000        1.0000   11 z         1
         31        Derivative        0.000000        1.0000   12 x         1
         32        Derivative        0.000000        1.0000   12 y         1
         33        Derivative        0.000000        1.0000   12 z         1
         34        Derivative        0.000000        1.0000   13 x         1
         35        Derivative        0.000000        1.0000   13 y         1
         36        Derivative        0.000000        1.0000   13 z         1
         37        Derivative        0.000000        1.0000   14 x         1
         38        Derivative        0.000000        1.0000   14 y         1
         39        Derivative        0.000000        1.0000   14 z         1
         40        Derivative        0.000000        1.0000    a           1
         41        Derivative        0.000000        1.0000    b           1
         42        Derivative        0.000000        1.0000    c           1
         43        Derivative        0.000000        1.0000    alpha       1
         44        Derivative        0.000000        1.0000    beta        1
         45        Derivative        0.000000        1.0000    gamma       1

  Variables :

     Parameter No.       Parameter Value          Parameter Type  Species
             1               1736.120000          Buckingham A
             2                  0.292700          Buckingham rho
             3                  0.073700          Shell position    1   9 x
             4                  0.443900          Shell position    1   9 y
             5                  0.705300          Shell position    1   9 z
             6                  0.705300          Shell position    1  10 x
             7                  0.073700          Shell position    1  10 y
             8                  0.443900          Shell position    1  10 z
             9                  0.443900          Shell position    1  11 x
            10                  0.705300          Shell position    1  11 y
            11                  0.073700          Shell position    1  11 z
            12                  0.926300          Shell position    1  12 x
            13                  0.556100          Shell position    1  12 y
            14                  0.294700          Shell position    1  12 z
            15                  0.294700          Shell position    1  13 x
            16                  0.926300          Shell position    1  13 y
            17                  0.556100          Shell position    1  13 z
            18                  0.556100          Shell position    1  14 x
            19                  0.294700          Shell position    1  14 y
            20                  0.926300          Shell position    1  14 z

  Simultaneous optimisation will be performed during fitting
  First derivatives of residuals to be used in fitting

  Maximum no. of cycles   =       5000
  Maximum step size       =  1000.0000
  Tolerance on parameters =  0.0000100
  Tolerance on function   =  0.0000100
  Tolerance on gradient   =  0.0001000
  Differencing interval   =  0.0001000

  Start of fitting :

  ** Hessian calculated **

  **** Fit completed successfully ****

  Final sum of squares =            43.736279

  Final gradient norm  =             9.291784

  Final values of parameters :

 Parameter No.    Parameter        Parameter      Parameter Type  Species
                  Original         Final
         1           1736.120000     12131.354404 Buckingham A
         2              0.292700         0.250727 Buckingham rho
         3              0.073700         0.063230 Shell position    1   9 x
         4              0.443900         0.453060 Shell position    1   9 y
         5              0.705300         0.673564 Shell position    1   9 z
         6              0.705300         0.673564 Shell position    1  10 x
         7              0.073700         0.063230 Shell position    1  10 y
         8              0.443900         0.453060 Shell position    1  10 z
         9              0.443900         0.453060 Shell position    1  11 x
        10              0.705300         0.673564 Shell position    1  11 y
        11              0.073700         0.063229 Shell position    1  11 z
        12              0.926300         0.936755 Shell position    1  12 x
        13              0.556100         0.546857 Shell position    1  12 y
        14              0.294700         0.326469 Shell position    1  12 z
        15              0.294700         0.326469 Shell position    1  13 x
        16              0.926300         0.936755 Shell position    1  13 y
        17              0.556100         0.546857 Shell position    1  13 z
        18              0.556100         0.546857 Shell position    1  14 x
        19              0.294700         0.326469 Shell position    1  14 y
        20              0.926300         0.936755 Shell position    1  14 z

  Final values of numerical parameter gradients :

     Parameter No.       Parameter Gradient      Parameter Type  Species
             1                  0.157024          Buckingham A
             2                 -0.045310          Buckingham rho
             3                  0.371535          Shell position    1   9 x
             4                  1.960415          Shell position    1   9 y
             5                  3.133299          Shell position    1   9 z
             6                  3.868438          Shell position    1  10 x
             7                  0.464269          Shell position    1  10 y
             8                  2.285135          Shell position    1  10 z
             9                  1.147543          Shell position    1  11 x
            10                  1.712149          Shell position    1  11 y
            11                  0.219767          Shell position    1  11 z
            12                 -3.038532          Shell position    1  12 x
            13                 -2.902528          Shell position    1  12 y
            14                 -1.189543          Shell position    1  12 z
            15                 -1.192617          Shell position    1  13 x
            16                 -3.420991          Shell position    1  13 y
            17                 -2.659720          Shell position    1  13 z
            18                 -2.140000          Shell position    1  14 x
            19                 -0.752124          Shell position    1  14 y
            20                 -1.842723          Shell position    1  14 z

  Final values of residuals :

   Observable no.  Type            Observable   Calculated    Residual  Error(%)
          1        Derivative         0.00000     -0.65888      0.43412
          2        Derivative         0.00000     -0.65888      0.43412
          3        Derivative         0.00000     -0.65890      0.43415
          4        Derivative         0.00000     -0.72809      0.53012
          5        Derivative         0.00000     -0.59694      0.35634
          6        Derivative         0.00000     -0.87823      0.77128
          7        Derivative         0.00000     -0.87830      0.77140
          8        Derivative         0.00000     -0.72822      0.53030
          9        Derivative         0.00000     -0.59690      0.35628
         10        Derivative         0.00000     -0.59686      0.35624
         11        Derivative         0.00000     -0.87818      0.77121
         12        Derivative         0.00000     -0.72793      0.52988
         13        Derivative         0.00000      0.78885      0.62229
         14        Derivative         0.00000      0.70062      0.49087
         15        Derivative         0.00000      0.91402      0.83543
         16        Derivative         0.00000      0.91398      0.83537
         17        Derivative         0.00000      0.78897      0.62247
         18        Derivative         0.00000      0.70051      0.49071
         19        Derivative         0.00000      0.70053      0.49074
         20        Derivative         0.00000      0.91401      0.83542
         21        Derivative         0.00000      0.78878      0.62217
         22        Derivative         0.00000     -0.38798      0.15053
         23        Derivative         0.00000     -0.59786      0.35744
         24        Derivative         0.00000     -0.61072      0.37298
         25        Derivative         0.00000     -0.61062      0.37285
         26        Derivative         0.00000     -0.38783      0.15041
         27        Derivative         0.00000     -0.59790      0.35748
         28        Derivative         0.00000     -0.59797      0.35757
         29        Derivative         0.00000     -0.61080      0.37307
         30        Derivative         0.00000     -0.38818      0.15069
         31        Derivative         0.00000      0.30813      0.09495
         32        Derivative         0.00000      0.46254      0.21394
         33        Derivative         0.00000      0.56049      0.31415
         34        Derivative         0.00000      0.56051      0.31417
         35        Derivative         0.00000      0.30799      0.09486
         36        Derivative         0.00000      0.46266      0.21406
         37        Derivative         0.00000      0.46266      0.21405
         38        Derivative         0.00000      0.56052      0.31418
         39        Derivative         0.00000      0.30824      0.09501
         40        Derivative         0.00000      3.51009     12.32075
         41        Derivative         0.00000      3.51009     12.32073
         42        Derivative         0.00000     -1.56892      2.46150
         43        Derivative         0.00000     -0.00000      0.00000
         44        Derivative         0.00000      0.00001      0.00000
         45        Derivative         0.00000      0.00001      0.00000

  Comparison of initial and final observables :

   Observable no.  Type            Observable   Initial       Final
          1        Derivative         0.00000     -0.13321     -0.65888
          2        Derivative         0.00000     -0.13454     -0.65888
          3        Derivative         0.00000     -0.12288     -0.65890
          4        Derivative         0.00000    -55.94417     -0.72809
          5        Derivative         0.00000    -43.33282     -0.59694
          6        Derivative         0.00000    -70.01711     -0.87823
          7        Derivative         0.00000    -70.02153     -0.87830
          8        Derivative         0.00000    -55.94417     -0.72822
          9        Derivative         0.00000    -43.34165     -0.59690
         10        Derivative         0.00000    -43.33475     -0.59686
         11        Derivative         0.00000    -70.02586     -0.87818
         12        Derivative         0.00000    -55.94415     -0.72793
         13        Derivative         0.00000     55.94394      0.78885
         14        Derivative         0.00000     43.33315      0.70062
         15        Derivative         0.00000     70.01349      0.91402
         16        Derivative         0.00000     70.01797      0.91398
         17        Derivative         0.00000     55.94393      0.78897
         18        Derivative         0.00000     43.32867      0.70051
         19        Derivative         0.00000     43.41789      0.70053
         20        Derivative         0.00000     70.10268      0.91401
         21        Derivative         0.00000     56.08170      0.78878
         22        Derivative         0.00000     84.72393     -0.38798
         23        Derivative         0.00000     66.23143     -0.59786
         24        Derivative         0.00000    105.36669     -0.61072
         25        Derivative         0.00000    105.37433     -0.61062
         26        Derivative         0.00000     84.72393     -0.38783
         27        Derivative         0.00000     66.24656     -0.59790
         28        Derivative         0.00000     66.23515     -0.59797
         29        Derivative         0.00000    105.38248     -0.61080
         30        Derivative         0.00000     84.72452     -0.38818
         31        Derivative         0.00000    -84.72362      0.30813
         32        Derivative         0.00000    -66.23198      0.46254
         33        Derivative         0.00000   -105.36036      0.56049
         34        Derivative         0.00000   -105.36817      0.56051
         35        Derivative         0.00000    -84.72362      0.30799
         36        Derivative         0.00000    -66.22417      0.46266
         37        Derivative         0.00000    -66.33344      0.46266
         38        Derivative         0.00000   -105.45061      0.56052
         39        Derivative         0.00000    -84.85675      0.30824
         40        Derivative         0.00000      9.99357      3.51009
         41        Derivative         0.00000      9.98105      3.51009
         42        Derivative         0.00000     38.92803     -1.56892
         43        Derivative         0.00000      0.00450     -0.00000
         44        Derivative         0.00000      0.00009      0.00001
         45        Derivative         0.00000     -0.00161      0.00001

  Maximum range for interatomic potentials =    100000.000000 Angstroms

  General interatomic potentials :

Atom  Types   Potential      Parameter       Value         Units   Cutoffs(Ang)
  1     2                                                            Min /  Max
Cl   c Cl   s Spring (c-s)  Spring k 2       29.380000    eV*Ang^-2 0.000  0.800
                            Spring k 4       0.0000000    eV*Ang^-4
Sc   c Cl   s Buckingham    Buckingham A     12131.354    eV        0.000 12.000
                            Buckingham rho  0.25072735    Ang
                            Buckingham C     0.0000000    eV*Ang^6
Cl   s Cl   s Buckingham    Buckingham A     1227.2000    eV        0.000 12.000
                            Buckingham rho  0.32100000    Ang
                            Buckingham C     14.530000    eV*Ang^6

  Total time to end of fitting =       2.3792 seconds

*  Output for configuration   1                                                *

  Components of energy :

  Interatomic potentials     =          18.61921930 eV
  Monopole - monopole (real) =          79.14339918 eV
  Monopole - monopole (recip)=        -197.45904569 eV
  Monopole - monopole (total)=        -118.31564651 eV
  Total lattice energy       =         -99.69642721 eV
  Total lattice energy       =           -9619.1812 kJ/(mole unit cells)

  Number of variables =       45

  Maximum number of calculations  =          1000
  Maximum Hessian update interval =            10
  Maximum step size               =   1.000000000
  Maximum parameter tolerance     =   0.000010000
  Maximum function  tolerance     =   0.000010000
  Maximum gradient  tolerance     =   0.001000000
  Maximum gradient  component     =   0.010000000

  Cell parameters to be optimised using strains

  Newton-Raphson optimiser to be used

  BFGS hessian update to be used

  Lower half triangular hessian to be used

  Start of bulk optimisation :

  ** Hessian calculated **

  **** Optimisation achieved ****

  Final energy =     -99.84270934 eV
  Final Gnorm  =       0.00005138

  Components of energy :

  Interatomic potentials     =          20.54800700 eV
  Monopole - monopole (real) =          80.98415254 eV
  Monopole - monopole (recip)=        -201.37486887 eV
  Monopole - monopole (total)=        -120.39071634 eV
  Total lattice energy       =         -99.84270934 eV
  Total lattice energy       =           -9633.2952 kJ/(mole unit cells)

  Final fractional coordinates of atoms :

   No.  Atomic        x           y          z          Radius
        Label       (Frac)      (Frac)     (Frac)       (Angs)
     1  Sc    c     0.333900    0.333900    0.333900    0.000000
     2  Sc    c     0.667298    0.667298    0.667298    0.000000
     3  Cl    c     0.077939    0.441131    0.714488    0.000000
     4  Cl    c     0.714488    0.077939    0.441131    0.000000
     5  Cl    c     0.441131    0.714487    0.077939    0.000000
     6  Cl    c     0.923259    0.560067    0.286710    0.000000
     7  Cl    c     0.286710    0.923259    0.560067    0.000000
     8  Cl    c     0.560067    0.286710    0.923259    0.000000
     9  Cl    s     0.065895    0.450768    0.680870    0.000000
    10  Cl    s     0.680870    0.065895    0.450768    0.000000
    11  Cl    s     0.450768    0.680870    0.065895    0.000000
    12  Cl    s     0.935303    0.550429    0.320328    0.000000
    13  Cl    s     0.320328    0.935303    0.550429    0.000000
    14  Cl    s     0.550429    0.320328    0.935303    0.000000

  Final Cartesian lattice vectors (Angstroms) :

        3.147279    1.817084    6.453823
       -3.147281    1.817084    6.453824
       -0.000001   -3.634165    6.453823

  Final cell parameters and derivatives :

       a            7.406685 Angstrom     dE/de1(xx)     0.000069 eV/strain
       b            7.406688 Angstrom     dE/de2(yy)     0.000069 eV/strain
       c            7.406685 Angstrom     dE/de3(zz)     0.000126 eV/strain
       alpha       50.291726 Degrees      dE/de4(yz)    -0.000000 eV/strain
       beta        50.291734 Degrees      dE/de5(xz)     0.000000 eV/strain
       gamma       50.291724 Degrees      dE/de6(xy)     0.000000 eV/strain

  Primitive cell volume =           221.451414 Angs**3

  Density of cell =      2.269213 g/cm**3

  Non-primitive cell volume =           221.451414 Angs**3

  Final internal derivatives :

   No.  Atomic          a             b             c           Radius
        Label          (eV)          (eV)          (eV)        (eV/Angs)
      1 Sc    c       0.000000      0.000000      0.000000      0.000000
      2 Sc    c      -0.001225     -0.001225     -0.001225      0.000000
      3 Cl    c       0.000295     -0.000120     -0.000116      0.000000
      4 Cl    c      -0.000116      0.000294     -0.000120      0.000000
      5 Cl    c      -0.000120     -0.000116      0.000295      0.000000
      6 Cl    c      -0.000292      0.000126      0.000112      0.000000
      7 Cl    c       0.000112     -0.000291      0.000126      0.000000
      8 Cl    c       0.000126      0.000112     -0.000292      0.000000
      9 Cl    s       0.000132      0.000065      0.000003      0.000000
     10 Cl    s       0.000002      0.000132      0.000065      0.000000
     11 Cl    s       0.000065      0.000002      0.000131      0.000000
     12 Cl    s      -0.000132     -0.000071      0.000009      0.000000
     13 Cl    s       0.000009     -0.000132     -0.000071      0.000000
     14 Cl    s      -0.000071      0.000009     -0.000132      0.000000
  Maximum abs         0.001225      0.001225      0.001225      0.000000

  Time to end of optimisation =       2.4382 seconds

  Timing analysis for GULP :

  Task / Subroutine                                          Time (Seconds)
  Calculation of reciprocal space energy and derivatives          0.0779
  Calculation of real space energy and derivatives                2.3351
  Sum of squares for fitting                                      0.0145
  Symmetry generation of equivalent positions                     0.0003
  Global summation overhead                                       0.0003

  Dump file written as ScCl3.grs

  Job Finished at 14:57.51 23rd March      2022