  Job Started  at 15:29.11  7th February   2022

  Number of CPUs =     1

  Total number of configurations input =      1

*  Input for Configuration =   1                                               *

  Formula = Sc2Cl6

  Number of irreducible atoms/shells =       8

  Total number atoms/shells =       8

  Dimensionality = 3               :  Bulk

  Cartesian lattice vectors (Angstroms) :

        7.453000    0.000000    0.000000
        4.624520    5.844744    0.000000
        4.624520    2.237970    5.399307

  Cell parameters (Angstroms/Degrees):

  a =       7.4530    alpha =  51.6480
  b =       7.4530    beta  =  51.6480
  c =       7.4530    gamma =  51.6480

  Initial cell volume =         235.198534 Angs**3

  Temperature of configuration =   0.00     K

  Pressure of configuration =         0.000 GPa

  Fractional coordinates of asymmetric unit :

   No.  Atomic       x           y          z         Charge      Occupancy
        Label      (Frac)      (Frac)     (Frac)        (e)         (Frac)
      1 Sc    c    0.333900    0.333900    0.333900     3.00000    1.000000
      2 Sc    c    0.666100 *  0.666100 *  0.666100 *   3.00000    1.000000
      3 Cl    c    0.073700 *  0.443900 *  0.705300 *  -1.00000    1.000000
      4 Cl    c    0.294700 *  0.926300 *  0.556100 *  -1.00000    1.000000
      5 Cl    c    0.443900 *  0.705300 *  0.073700 *  -1.00000    1.000000
      6 Cl    c    0.556100 *  0.294700 *  0.926300 *  -1.00000    1.000000
      7 Cl    c    0.705300 *  0.073700 *  0.443900 *  -1.00000    1.000000
      8 Cl    c    0.926300 *  0.556100 *  0.294700 *  -1.00000    1.000000

*  General input information                                                   *

  Species output for all configurations :

  Species    Type    Atomic    Atomic    Charge       Radii (Angs)     Library
                     Number     Mass       (e)     Cova   Ionic  VDW   Symbol
    Sc       Core       21      44.96   3.000000   1.440  0.000  2.150
    Cl       Core       17      35.45  -1.000000   0.990  0.000  1.650

  Lattice summation method               =    Ewald          (3-D)
                                         =    Parry          (2-D)
                                         =    Saunders et al (1-D)
  Accuracy factor for lattice sums       =   12.000

  Analytic derivatives to be used

  Time limit = Infinity

  Maximum range for interatomic potentials =    100000.000000 Angstroms

  General interatomic potentials :

Atom  Types   Potential      Parameter       Value         Units   Cutoffs(Ang)
  1     2                                                            Min /  Max
Cl   c Sc   c Buckingham    Buckingham A     2191.0900    eV        0.000 12.000
                            Buckingham rho  0.34570000    Ang
                            Buckingham C     0.0000000    eV*Ang^6
Cl   c Cl   c Buckingham    Buckingham A     1227.2000    eV        0.000 12.000
                            Buckingham rho  0.32100000    Ang
                            Buckingham C     14.530000    eV*Ang^6

  Number of variables   =    2
  Number of observables =   27

   Observable no.  Type           Observable    Weight       Reference  Confign
          1        Derivative        0.000000        1.0000    2 x         1
          2        Derivative        0.000000        1.0000    2 y         1
          3        Derivative        0.000000        1.0000    2 z         1
          4        Derivative        0.000000        1.0000    3 x         1
          5        Derivative        0.000000        1.0000    3 y         1
          6        Derivative        0.000000        1.0000    3 z         1
          7        Derivative        0.000000        1.0000    4 x         1
          8        Derivative        0.000000        1.0000    4 y         1
          9        Derivative        0.000000        1.0000    4 z         1
         10        Derivative        0.000000        1.0000    5 x         1
         11        Derivative        0.000000        1.0000    5 y         1
         12        Derivative        0.000000        1.0000    5 z         1
         13        Derivative        0.000000        1.0000    6 x         1
         14        Derivative        0.000000        1.0000    6 y         1
         15        Derivative        0.000000        1.0000    6 z         1
         16        Derivative        0.000000        1.0000    7 x         1
         17        Derivative        0.000000        1.0000    7 y         1
         18        Derivative        0.000000        1.0000    7 z         1
         19        Derivative        0.000000        1.0000    8 x         1
         20        Derivative        0.000000        1.0000    8 y         1
         21        Derivative        0.000000        1.0000    8 z         1
         22        Derivative        0.000000        1.0000    a           1
         23        Derivative        0.000000        1.0000    b           1
         24        Derivative        0.000000        1.0000    c           1
         25        Derivative        0.000000        1.0000    alpha       1
         26        Derivative        0.000000        1.0000    beta        1
         27        Derivative        0.000000        1.0000    gamma       1

  Variables :

     Parameter No.       Parameter Value          Parameter Type  Species
             1               2191.090000          Buckingham A
             2                  0.345700          Buckingham rho

  Symmetry not used for fitting
  First derivatives of residuals to be used in fitting

  Maximum no. of cycles   =       5000
  Maximum step size       =  1000.0000
  Tolerance on parameters =  0.0000100
  Tolerance on function   =  0.0000100
  Tolerance on gradient   =  0.0001000
  Differencing interval   =  0.0001000

  Start of fitting :

  ** Hessian calculated **
  ** Hessian calculated **
  ** Hessian calculated **
  ** Hessian calculated **
  ** Hessian calculated **
  ** Hessian calculated **
  ** Hessian calculated **
  ** Hessian calculated **
  ** Hessian calculated **

  **** Fit completed successfully ****

  Final sum of squares =          1340.913331

  Final gradient norm  =             0.846735

  Final values of parameters :

 Parameter No.    Parameter        Parameter      Parameter Type  Species
                  Original         Final
         1           2191.090000     30804.209646 Buckingham A
         2              0.345700         0.245434 Buckingham rho

  Final values of numerical parameter gradients :

     Parameter No.       Parameter Gradient      Parameter Type  Species
             1                 -0.002009          Buckingham A
             2                  0.846733          Buckingham rho

  Final values of residuals :

   Observable no.  Type            Observable   Calculated    Residual  Error(%)
          1        Derivative         0.00000     -0.89718      0.80493
          2        Derivative         0.00000     -0.89718      0.80493
          3        Derivative         0.00000     -0.89718      0.80493
          4        Derivative         0.00000      3.80953     14.51255
          5        Derivative         0.00000      4.92001     24.20645
          6        Derivative         0.00000      2.27408      5.17144
          7        Derivative         0.00000     -2.27408      5.17144
          8        Derivative         0.00000     -3.80953     14.51255
          9        Derivative         0.00000     -4.92001     24.20645
         10        Derivative         0.00000      4.92001     24.20645
         11        Derivative         0.00000      2.27408      5.17144
         12        Derivative         0.00000      3.80953     14.51255
         13        Derivative         0.00000     -4.92001     24.20645
         14        Derivative         0.00000     -2.27408      5.17144
         15        Derivative         0.00000     -3.80953     14.51255
         16        Derivative         0.00000      2.27408      5.17144
         17        Derivative         0.00000      3.80953     14.51255
         18        Derivative         0.00000      4.92001     24.20645
         19        Derivative         0.00000     -3.80953     14.51255
         20        Derivative         0.00000     -4.92001     24.20645
         21        Derivative         0.00000     -2.27408      5.17144
         22        Derivative         0.00000     -2.51719      6.33625
         23        Derivative         0.00000    -19.58238    383.46977
         24        Derivative         0.00000    -22.47236    505.00717
         25        Derivative         0.00000      3.48617     12.15338
         26        Derivative         0.00000      7.20379     51.89455
         27        Derivative         0.00000     10.78400    116.29475

  Comparison of initial and final observables :

   Observable no.  Type            Observable   Initial       Final
          1        Derivative         0.00000     -0.44825     -0.89718
          2        Derivative         0.00000     -0.44825     -0.89718
          3        Derivative         0.00000     -0.44825     -0.89718
          4        Derivative         0.00000      4.37893      3.80953
          5        Derivative         0.00000      5.43210      4.92001
          6        Derivative         0.00000      3.26157      2.27408
          7        Derivative         0.00000     -3.26157     -2.27408
          8        Derivative         0.00000     -4.37893     -3.80953
          9        Derivative         0.00000     -5.43210     -4.92001
         10        Derivative         0.00000      5.43210      4.92001
         11        Derivative         0.00000      3.26157      2.27408
         12        Derivative         0.00000      4.37893      3.80953
         13        Derivative         0.00000     -5.43210     -4.92001
         14        Derivative         0.00000     -3.26157     -2.27408
         15        Derivative         0.00000     -4.37893     -3.80953
         16        Derivative         0.00000      3.26157      2.27408
         17        Derivative         0.00000      4.37893      3.80953
         18        Derivative         0.00000      5.43210      4.92001
         19        Derivative         0.00000     -4.37893     -3.80953
         20        Derivative         0.00000     -5.43210     -4.92001
         21        Derivative         0.00000     -3.26157     -2.27408
         22        Derivative         0.00000     -1.68190     -2.51719
         23        Derivative         0.00000    -18.80452    -19.58238
         24        Derivative         0.00000    -21.70423    -22.47236
         25        Derivative         0.00000      3.49790      3.48617
         26        Derivative         0.00000      7.22803      7.20379
         27        Derivative         0.00000     10.82030     10.78400

  Maximum range for interatomic potentials =    100000.000000 Angstroms

  General interatomic potentials :

Atom  Types   Potential      Parameter       Value         Units   Cutoffs(Ang)
  1     2                                                            Min /  Max
Cl   c Sc   c Buckingham    Buckingham A     30804.210    eV        0.000 12.000
                            Buckingham rho  0.24543386    Ang
                            Buckingham C     0.0000000    eV*Ang^6
Cl   c Cl   c Buckingham    Buckingham A     1227.2000    eV        0.000 12.000
                            Buckingham rho  0.32100000    Ang
                            Buckingham C     14.530000    eV*Ang^6

  Total time to end of fitting =       1.6174 seconds

*  Output for configuration   1                                                *

  Components of energy :

  Interatomic potentials     =          13.65230798 eV
  Monopole - monopole (real) =         -33.23118263 eV
  Monopole - monopole (recip)=         -63.15383644 eV
  Monopole - monopole (total)=         -96.38501907 eV
  Total lattice energy       =         -82.73271109 eV
  Total lattice energy       =           -7982.4419 kJ/(mole unit cells)

  Number of variables =       27

  Maximum number of calculations  =          1000
  Maximum Hessian update interval =            10
  Maximum step size               =   1.000000000
  Maximum parameter tolerance     =   0.000010000
  Maximum function  tolerance     =   0.000010000
  Maximum gradient  tolerance     =   0.001000000
  Maximum gradient  component     =   0.010000000

  Symmetry not applied to optimisation

  Cell parameters to be optimised using strains

  Newton-Raphson optimiser to be used

  BFGS hessian update to be used

  Lower half triangular hessian to be used

  Start of bulk optimisation :

  ** Hessian calculated **
  ** Hessian calculated **
  ** Hessian calculated **
  ** Hessian calculated **
  ** Hessian calculated **

  **** Optimisation achieved ****

  Final energy =     -88.98911935 eV
  Final Gnorm  =       0.00035642

  Components of energy :

  Interatomic potentials     =           8.89225616 eV
  Monopole - monopole (real) =         -22.91086710 eV
  Monopole - monopole (recip)=         -74.97050841 eV
  Monopole - monopole (total)=         -97.88137551 eV
  Total lattice energy       =         -88.98911935 eV
  Total lattice energy       =           -8586.0897 kJ/(mole unit cells)

  Final fractional coordinates of atoms :

   No.  Atomic        x           y          z          Radius
        Label       (Frac)      (Frac)     (Frac)       (Angs)
     1  Sc    c     0.333900    0.333900    0.333900    0.000000
     2  Sc    c     0.833928    0.832450    0.835304    0.000000
     3  Cl    c     0.212396    0.468259    0.831492    0.000000
     4  Cl    c     0.333938    0.966138    0.701345    0.000000
     5  Cl    c     0.455326    0.836311    0.199256    0.000000
     6  Cl    c     0.712434    0.330006    0.969894    0.000000
     7  Cl    c     0.833856    0.200161    0.467813    0.000000
     8  Cl    c     0.955356    0.698034    0.337692    0.000000

  Final Cartesian lattice vectors (Angstroms) :

        4.997840   -1.548845   -1.035263
        1.898384    4.945391   -1.066656
        1.898882    0.909025    4.977695

  Final cell parameters and derivatives :

       a            5.333770 Angstrom     dE/de1(xx)    -0.005699 eV/strain
       b            5.403564 Angstrom     dE/de2(yy)     0.001296 eV/strain
       c            5.404584 Angstrom     dE/de3(zz)    -0.000964 eV/strain
       alpha       84.516315 Degrees      dE/de4(yz)     0.000760 eV/strain
       beta        84.168001 Degrees      dE/de5(xz)    -0.002539 eV/strain
       gamma       84.160306 Degrees      dE/de6(xy)    -0.001300 eV/strain

  Primitive cell volume =           153.584417 Angs**3

  Density of cell =      3.271949 g/cm**3

  Non-primitive cell volume =           153.584417 Angs**3

  Final internal derivatives :

   No.  Atomic          a             b             c           Radius
        Label          (eV)          (eV)          (eV)        (eV/Angs)
      1 Sc    c       0.000000      0.000000      0.000000      0.000000
      2 Sc    c       0.003914      0.001103     -0.002101      0.000000
      3 Cl    c      -0.001585     -0.000812     -0.002139      0.000000
      4 Cl    c      -0.003057      0.000709      0.000225      0.000000
      5 Cl    c      -0.000139      0.000033     -0.000102      0.000000
      6 Cl    c      -0.000669     -0.002264     -0.000803      0.000000
      7 Cl    c       0.000457     -0.000421      0.001311      0.000000
      8 Cl    c      -0.001234      0.000198      0.000546      0.000000
  Maximum abs         0.003914      0.002264      0.002139      0.000000

  Comparison of initial and final structures :

  Parameter   Initial value   Final value   Difference    Units      Percent
    Volume       235.198534    153.584417   -81.614118    Angs**3    -34.70
    a              7.453000      5.333770    -2.119230    Angstroms  -28.43
    b              7.453000      5.403564    -2.049436    Angstroms  -27.50
    c              7.453000      5.404584    -2.048416    Angstroms  -27.48
    alpha         51.648000     84.516315    32.868315    Degrees     63.64
    beta          51.648000     84.168001    32.520001    Degrees     62.96
    gamma         51.648000     84.160306    32.512306    Degrees     62.95
      1 x          0.333900      0.333900     0.000000    Fractional   0.00
      1 y          0.333900      0.333900     0.000000    Fractional   0.00
      1 z          0.333900      0.333900     0.000000    Fractional   0.00
      2 x          0.666100      0.833928     0.167828    Fractional  25.20
      2 y          0.666100      0.832450     0.166350    Fractional  24.97
      2 z          0.666100      0.835304     0.169204    Fractional  25.40
      3 x          0.073700      0.212396     0.138696    Fractional 188.19
      3 y          0.443900      0.468259     0.024359    Fractional   5.49
      3 z          0.705300      0.831492     0.126192    Fractional  17.89
      4 x          0.294700      0.333938     0.039238    Fractional  13.31
      4 y          0.926300      0.966138     0.039838    Fractional   4.30
      4 z          0.556100      0.701345     0.145245    Fractional  26.12
      5 x          0.443900      0.455326     0.011426    Fractional   2.57
      5 y          0.705300      0.836311     0.131011    Fractional  18.58
      5 z          0.073700      0.199256     0.125556    Fractional 170.36
      6 x          0.556100      0.712434     0.156334    Fractional  28.11
      6 y          0.294700      0.330006     0.035306    Fractional  11.98
      6 z          0.926300      0.969894     0.043594    Fractional   4.71
      7 x          0.705300      0.833856     0.128556    Fractional  18.23
      7 y          0.073700      0.200161     0.126461    Fractional 171.59
      7 z          0.443900      0.467813     0.023913    Fractional   5.39
      8 x          0.926300      0.955356     0.029056    Fractional   3.14
      8 y          0.556100      0.698034     0.141934    Fractional  25.52
      8 z          0.294700      0.337692     0.042992    Fractional  14.59

  Time to end of optimisation =       1.6821 seconds

  Timing analysis for GULP :

  Task / Subroutine                                          Time (Seconds)
  Calculation of reciprocal space energy and derivatives          0.0798
  Calculation of real space energy and derivatives                1.5699
  Sum of squares for fitting                                      0.0200
  Global summation overhead                                       0.0006

  Dump file written as ScCl3.grs

  Job Finished at 15:29.12  7th February   2022