  Job Started  at 13:00.24 18th June       2021

  Number of CPUs =     1

  Total number of configurations input =      1

*  Input for Configuration =   1                                               *

  Formula = Sc2Cl6

  Number of irreducible atoms/shells =      14

  Total number atoms/shells =      14

  Dimensionality = 3               :  Bulk

  Cartesian lattice vectors (Angstroms) :

        3.246588    1.874418    6.441540
       -3.246588    1.874418    6.441540
        0.000000   -3.748837    6.441540

  Cell parameters (Angstroms/Degrees):

  a =       7.4530    alpha =  51.6480
  b =       7.4530    beta  =  51.6480
  c =       7.4530    gamma =  51.6480

  Initial cell volume =         235.198534 Angs**3

  Temperature of configuration =   0.00     K

  Pressure of configuration =         0.000 GPa

  Fractional coordinates of asymmetric unit :

   No.  Atomic       x           y          z         Charge      Occupancy
        Label      (Frac)      (Frac)     (Frac)        (e)         (Frac)
      1 Sc    c    0.333900    0.333900    0.333900     3.00000    1.000000
      2 Sc    c    0.666100 *  0.666100 *  0.666100 *   3.00000    1.000000
      3 Cl    c    0.073700 *  0.443900 *  0.705300 *   1.48500    1.000000
      4 Cl    c    0.705300 *  0.073700 *  0.443900 *   1.48500    1.000000
      5 Cl    c    0.443900 *  0.705300 *  0.073700 *   1.48500    1.000000
      6 Cl    c    0.926300 *  0.556100 *  0.294700 *   1.48500    1.000000
      7 Cl    c    0.294700 *  0.926300 *  0.556100 *   1.48500    1.000000
      8 Cl    c    0.556100 *  0.294700 *  0.926300 *   1.48500    1.000000
      9 Cl    s    0.073700 *  0.443900 *  0.705300 *  -2.48500    1.000000
     10 Cl    s    0.705300 *  0.073700 *  0.443900 *  -2.48500    1.000000
     11 Cl    s    0.443900 *  0.705300 *  0.073700 *  -2.48500    1.000000
     12 Cl    s    0.926300 *  0.556100 *  0.294700 *  -2.48500    1.000000
     13 Cl    s    0.294700 *  0.926300 *  0.556100 *  -2.48500    1.000000
     14 Cl    s    0.556100 *  0.294700 *  0.926300 *  -2.48500    1.000000

*  General input information                                                   *

  Species output for all configurations :

  Species    Type    Atomic    Atomic    Charge       Radii (Angs)     Library
                     Number     Mass       (e)     Cova   Ionic  VDW   Symbol
    Sc       Core       21      44.96   3.000000   1.440  0.000  2.150
    Cl       Core       17      35.45   1.485000   0.990  0.000  1.650
    Cl       Shell      17       0.00  -2.485000   0.990  0.000  1.650

  Lattice summation method               =    Ewald          (3-D)
                                         =    Parry          (2-D)
                                         =    Saunders et al (1-D)
  Accuracy factor for lattice sums       =   12.000

  Analytic derivatives to be used

  Time limit = Infinity

  Maximum range for interatomic potentials =    100000.000000 Angstroms

  General interatomic potentials :

Atom  Types   Potential      Parameter       Value         Units   Cutoffs(Ang)
  1     2                                                            Min /  Max
Cl   c Cl   s Spring (c-s)  Spring k 2       29.380000    eV*Ang^-2 0.000  0.800
                            Spring k 4       0.0000000    eV*Ang^-4
Sc   c Cl   s Buckingham    Buckingham A     16091.010    eV        0.000 12.000
                            Buckingham rho  0.22740000    Ang
                            Buckingham C    0.58000000    eV*Ang^6
Cl   s Cl   s Buckingham    Buckingham A     1227.2000    eV        0.000 12.000
                            Buckingham rho  0.32100000    Ang
                            Buckingham C     14.530000    eV*Ang^6

  Number of variables   =   21
  Number of observables =   45

   Observable no.  Type           Observable    Weight       Reference  Confign
          1        Derivative        0.000000        1.0000    2 x         1
          2        Derivative        0.000000        1.0000    2 y         1
          3        Derivative        0.000000        1.0000    2 z         1
          4        Derivative        0.000000        1.0000    3 x         1
          5        Derivative        0.000000        1.0000    3 y         1
          6        Derivative        0.000000        1.0000    3 z         1
          7        Derivative        0.000000        1.0000    4 x         1
          8        Derivative        0.000000        1.0000    4 y         1
          9        Derivative        0.000000        1.0000    4 z         1
         10        Derivative        0.000000        1.0000    5 x         1
         11        Derivative        0.000000        1.0000    5 y         1
         12        Derivative        0.000000        1.0000    5 z         1
         13        Derivative        0.000000        1.0000    6 x         1
         14        Derivative        0.000000        1.0000    6 y         1
         15        Derivative        0.000000        1.0000    6 z         1
         16        Derivative        0.000000        1.0000    7 x         1
         17        Derivative        0.000000        1.0000    7 y         1
         18        Derivative        0.000000        1.0000    7 z         1
         19        Derivative        0.000000        1.0000    8 x         1
         20        Derivative        0.000000        1.0000    8 y         1
         21        Derivative        0.000000        1.0000    8 z         1
         22        Derivative        0.000000        1.0000    9 x         1
         23        Derivative        0.000000        1.0000    9 y         1
         24        Derivative        0.000000        1.0000    9 z         1
         25        Derivative        0.000000        1.0000   10 x         1
         26        Derivative        0.000000        1.0000   10 y         1
         27        Derivative        0.000000        1.0000   10 z         1
         28        Derivative        0.000000        1.0000   11 x         1
         29        Derivative        0.000000        1.0000   11 y         1
         30        Derivative        0.000000        1.0000   11 z         1
         31        Derivative        0.000000        1.0000   12 x         1
         32        Derivative        0.000000        1.0000   12 y         1
         33        Derivative        0.000000        1.0000   12 z         1
         34        Derivative        0.000000        1.0000   13 x         1
         35        Derivative        0.000000        1.0000   13 y         1
         36        Derivative        0.000000        1.0000   13 z         1
         37        Derivative        0.000000        1.0000   14 x         1
         38        Derivative        0.000000        1.0000   14 y         1
         39        Derivative        0.000000        1.0000   14 z         1
         40        Derivative        0.000000        1.0000    a           1
         41        Derivative        0.000000        1.0000    b           1
         42        Derivative        0.000000        1.0000    c           1
         43        Derivative        0.000000        1.0000    alpha       1
         44        Derivative        0.000000        1.0000    beta        1
         45        Derivative        0.000000        1.0000    gamma       1

  Variables :

     Parameter No.       Parameter Value          Parameter Type  Species
             1              16091.010000          Buckingham A
             2                  0.227400          Buckingham rho
             3                  0.580000          Buckingham C
             4                  0.073700          Shell position    1   9 x
             5                  0.443900          Shell position    1   9 y
             6                  0.705300          Shell position    1   9 z
             7                  0.705300          Shell position    1  10 x
             8                  0.073700          Shell position    1  10 y
             9                  0.443900          Shell position    1  10 z
            10                  0.443900          Shell position    1  11 x
            11                  0.705300          Shell position    1  11 y
            12                  0.073700          Shell position    1  11 z
            13                  0.926300          Shell position    1  12 x
            14                  0.556100          Shell position    1  12 y
            15                  0.294700          Shell position    1  12 z
            16                  0.294700          Shell position    1  13 x
            17                  0.926300          Shell position    1  13 y
            18                  0.556100          Shell position    1  13 z
            19                  0.556100          Shell position    1  14 x
            20                  0.294700          Shell position    1  14 y
            21                  0.926300          Shell position    1  14 z

  Simultaneous optimisation will be performed during fitting
  First derivatives of residuals to be used in fitting

  Maximum no. of cycles   =       5000
  Maximum step size       =  1000.0000
  Tolerance on parameters =  0.0000100
  Tolerance on function   =  0.0000100
  Tolerance on gradient   =  0.0001000
  Differencing interval   =  0.0001000

  Start of fitting :

  ** Hessian calculated **
  ** Hessian calculated **
  ** Hessian calculated **
  ** Hessian calculated **
  ** Hessian calculated **
  ** Hessian calculated **
  ** Hessian calculated **
  ** Hessian calculated **
  ** Hessian calculated **
  ** Hessian calculated **
  ** Hessian calculated **
  ** Hessian calculated **
  ** Hessian calculated **
  ** Hessian calculated **
  ** Hessian calculated **

  **** Fit completed successfully ****

  Final sum of squares =            43.357440

  Final gradient norm  =            22.777836

  Final values of parameters :

 Parameter No.    Parameter        Parameter      Parameter Type  Species
                  Original         Final
         1          16091.010000      8602.739256 Buckingham A
         2              0.227400         0.261489 Buckingham rho
         3              0.580000         0.000110 Buckingham C
         4              0.073700         0.063249 Shell position    1   9 x
         5              0.443900         0.453050 Shell position    1   9 y
         6              0.705300         0.673560 Shell position    1   9 z
         7              0.705300         0.673558 Shell position    1  10 x
         8              0.073700         0.063251 Shell position    1  10 y
         9              0.443900         0.453051 Shell position    1  10 z
        10              0.443900         0.453053 Shell position    1  11 x
        11              0.705300         0.673557 Shell position    1  11 y
        12              0.073700         0.063249 Shell position    1  11 z
        13              0.926300         0.936737 Shell position    1  12 x
        14              0.556100         0.546868 Shell position    1  12 y
        15              0.294700         0.326482 Shell position    1  12 z
        16              0.294700         0.326483 Shell position    1  13 x
        17              0.926300         0.936736 Shell position    1  13 y
        18              0.556100         0.546869 Shell position    1  13 z
        19              0.556100         0.546866 Shell position    1  14 x
        20              0.294700         0.326484 Shell position    1  14 y
        21              0.926300         0.936736 Shell position    1  14 z

  Final values of numerical parameter gradients :

     Parameter No.       Parameter Gradient      Parameter Type  Species
             1                  2.037862          Buckingham A
             2                  0.026078          Buckingham rho
             3                 -0.042983          Buckingham C
             4                 -0.784507          Shell position    1   9 x
             5                 -6.640902          Shell position    1   9 y
             6                 -4.151641          Shell position    1   9 z
             7                  3.688290          Shell position    1  10 x
             8                  0.823101          Shell position    1  10 y
             9                  3.306167          Shell position    1  10 z
            10                 -1.478062          Shell position    1  11 x
            11                 -7.791730          Shell position    1  11 y
            12                 -0.691253          Shell position    1  11 z
            13                 -1.294065          Shell position    1  12 x
            14                  0.285442          Shell position    1  12 y
            15                  0.497740          Shell position    1  12 z
            16                  5.206648          Shell position    1  13 x
            17                 12.841480          Shell position    1  13 y
            18                 12.596856          Shell position    1  13 z
            19                  0.665031          Shell position    1  14 x
            20                  2.283767          Shell position    1  14 y
            21                 -2.404310          Shell position    1  14 z

  Final values of residuals :

   Observable no.  Type            Observable   Calculated    Residual  Error(%)
          1        Derivative         0.00000     -0.57944      0.33575
          2        Derivative         0.00000     -0.57939      0.33569
          3        Derivative         0.00000     -0.58012      0.33654
          4        Derivative         0.00000     -0.74431      0.55400
          5        Derivative         0.00000     -0.59411      0.35296
          6        Derivative         0.00000     -0.87869      0.77210
          7        Derivative         0.00000     -0.87817      0.77118
          8        Derivative         0.00000     -0.74653      0.55731
          9        Derivative         0.00000     -0.59572      0.35488
         10        Derivative         0.00000     -0.59672      0.35608
         11        Derivative         0.00000     -0.87689      0.76894
         12        Derivative         0.00000     -0.74460      0.55442
         13        Derivative         0.00000      0.79605      0.63370
         14        Derivative         0.00000      0.68845      0.47396
         15        Derivative         0.00000      0.90062      0.81112
         16        Derivative         0.00000      0.89968      0.80942
         17        Derivative         0.00000      0.79587      0.63341
         18        Derivative         0.00000      0.68686      0.47178
         19        Derivative         0.00000      0.68943      0.47531
         20        Derivative         0.00000      0.89964      0.80936
         21        Derivative         0.00000      0.79693      0.63509
         22        Derivative         0.00000     -0.38986      0.15199
         23        Derivative         0.00000     -0.59045      0.34863
         24        Derivative         0.00000     -0.59725      0.35671
         25        Derivative         0.00000     -0.59800      0.35761
         26        Derivative         0.00000     -0.38716      0.14989
         27        Derivative         0.00000     -0.58820      0.34598
         28        Derivative         0.00000     -0.58720      0.34480
         29        Derivative         0.00000     -0.59996      0.35995
         30        Derivative         0.00000     -0.38979      0.15194
         31        Derivative         0.00000      0.32113      0.10313
         32        Derivative         0.00000      0.46726      0.21833
         33        Derivative         0.00000      0.56486      0.31907
         34        Derivative         0.00000      0.56607      0.32044
         35        Derivative         0.00000      0.32160      0.10343
         36        Derivative         0.00000      0.46950      0.22043
         37        Derivative         0.00000      0.46648      0.21760
         38        Derivative         0.00000      0.56660      0.32103
         39        Derivative         0.00000      0.32052      0.10273
         40        Derivative         0.00000      3.50692     12.29850
         41        Derivative         0.00000      3.50707     12.29957
         42        Derivative         0.00000     -1.56929      2.46268
         43        Derivative         0.00000     -0.00005      0.00000
         44        Derivative         0.00000      0.00017      0.00000
         45        Derivative         0.00000     -0.00001      0.00000

  Comparison of initial and final observables :

   Observable no.  Type            Observable   Initial       Final
          1        Derivative         0.00000     -0.22756     -0.57944
          2        Derivative         0.00000     -0.22867     -0.57939
          3        Derivative         0.00000     -0.21755     -0.58012
          4        Derivative         0.00000    -55.94417     -0.74431
          5        Derivative         0.00000    -43.33282     -0.59411
          6        Derivative         0.00000    -70.01711     -0.87869
          7        Derivative         0.00000    -70.02153     -0.87817
          8        Derivative         0.00000    -55.94417     -0.74653
          9        Derivative         0.00000    -43.34165     -0.59572
         10        Derivative         0.00000    -43.33475     -0.59672
         11        Derivative         0.00000    -70.02586     -0.87689
         12        Derivative         0.00000    -55.94415     -0.74460
         13        Derivative         0.00000     55.94394      0.79605
         14        Derivative         0.00000     43.33315      0.68845
         15        Derivative         0.00000     70.01349      0.90062
         16        Derivative         0.00000     70.01797      0.89968
         17        Derivative         0.00000     55.94393      0.79587
         18        Derivative         0.00000     43.32867      0.68686
         19        Derivative         0.00000     43.41789      0.68943
         20        Derivative         0.00000     70.10268      0.89964
         21        Derivative         0.00000     56.08170      0.79693
         22        Derivative         0.00000     84.64545     -0.38986
         23        Derivative         0.00000     66.14927     -0.59045
         24        Derivative         0.00000    105.21727     -0.59725
         25        Derivative         0.00000    105.22491     -0.59800
         26        Derivative         0.00000     84.64545     -0.38716
         27        Derivative         0.00000     66.16440     -0.58820
         28        Derivative         0.00000     66.15299     -0.58720
         29        Derivative         0.00000    105.23306     -0.59996
         30        Derivative         0.00000     84.64604     -0.38979
         31        Derivative         0.00000    -84.64514      0.32113
         32        Derivative         0.00000    -66.14981      0.46726
         33        Derivative         0.00000   -105.21094      0.56486
         34        Derivative         0.00000   -105.21875      0.56607
         35        Derivative         0.00000    -84.64514      0.32160
         36        Derivative         0.00000    -66.14201      0.46950
         37        Derivative         0.00000    -66.25246      0.46648
         38        Derivative         0.00000   -105.30409      0.56660
         39        Derivative         0.00000    -84.78275      0.32052
         40        Derivative         0.00000      9.86848      3.50692
         41        Derivative         0.00000      9.85684      3.50707
         42        Derivative         0.00000     38.79647     -1.56929
         43        Derivative         0.00000      0.00387     -0.00005
         44        Derivative         0.00000     -0.00029      0.00017
         45        Derivative         0.00000     -0.00123     -0.00001

  Maximum range for interatomic potentials =    100000.000000 Angstroms

  General interatomic potentials :

Atom  Types   Potential      Parameter       Value         Units   Cutoffs(Ang)
  1     2                                                            Min /  Max
Cl   c Cl   s Spring (c-s)  Spring k 2       29.380000    eV*Ang^-2 0.000  0.800
                            Spring k 4       0.0000000    eV*Ang^-4
Sc   c Cl   s Buckingham    Buckingham A     8602.7393    eV        0.000 12.000
                            Buckingham rho  0.26148898    Ang
                            Buckingham C    0.10972212E-03eV*Ang^6
Cl   s Cl   s Buckingham    Buckingham A     1227.2000    eV        0.000 12.000
                            Buckingham rho  0.32100000    Ang
                            Buckingham C     14.530000    eV*Ang^6

  Total time to end of fitting =      38.5828 seconds

*  Output for configuration   1                                                *

  Components of energy :

  Interatomic potentials     =          19.15119833 eV
  Monopole - monopole (real) =          79.14314321 eV
  Monopole - monopole (recip)=        -197.45908782 eV
  Monopole - monopole (total)=        -118.31594460 eV
  Total lattice energy       =         -99.16474628 eV
  Total lattice energy       =           -9567.8821 kJ/(mole unit cells)

  Number of variables =       45

  Maximum number of calculations  =          1000
  Maximum Hessian update interval =            10
  Maximum step size               =   1.000000000
  Maximum parameter tolerance     =   0.000010000
  Maximum function  tolerance     =   0.000010000
  Maximum gradient  tolerance     =   0.001000000
  Maximum gradient  component     =   0.010000000

  Cell parameters to be optimised using strains

  Newton-Raphson optimiser to be used

  BFGS hessian update to be used

  Lower half triangular hessian to be used

  Start of bulk optimisation :

  ** Hessian calculated **

  **** Optimisation achieved ****

  Final energy =     -99.31262210 eV
  Final Gnorm  =       0.00005069

  Components of energy :

  Interatomic potentials     =          21.15284054 eV
  Monopole - monopole (real) =          80.97561837 eV
  Monopole - monopole (recip)=        -201.44108100 eV
  Monopole - monopole (total)=        -120.46546263 eV
  Total lattice energy       =         -99.31262210 eV
  Total lattice energy       =           -9582.1499 kJ/(mole unit cells)

  Final fractional coordinates of atoms :

   No.  Atomic        x           y          z          Radius
        Label       (Frac)      (Frac)     (Frac)       (Angs)
     1  Sc    c     0.333900    0.333900    0.333900    0.000000
     2  Sc    c     0.667299    0.667299    0.667299    0.000000
     3  Cl    c     0.077924    0.441128    0.714459    0.000000
     4  Cl    c     0.714460    0.077923    0.441129    0.000000
     5  Cl    c     0.441129    0.714459    0.077923    0.000000
     6  Cl    c     0.923276    0.560071    0.286740    0.000000
     7  Cl    c     0.286739    0.923276    0.560070    0.000000
     8  Cl    c     0.560070    0.286740    0.923276    0.000000
     9  Cl    s     0.065869    0.450778    0.680812    0.000000
    10  Cl    s     0.680813    0.065868    0.450778    0.000000
    11  Cl    s     0.450778    0.680812    0.065868    0.000000
    12  Cl    s     0.935330    0.550422    0.320387    0.000000
    13  Cl    s     0.320387    0.935331    0.550421    0.000000
    14  Cl    s     0.550421    0.320387    0.935331    0.000000

  Final Cartesian lattice vectors (Angstroms) :

        3.145614    1.816124    6.454463
       -3.145626    1.816124    6.454469
       -0.000006   -3.632250    6.454467

  Final cell parameters and derivatives :

       a            7.406300 Angstrom     dE/de1(xx)     0.000048 eV/strain
       b            7.406311 Angstrom     dE/de2(yy)     0.000047 eV/strain
       c            7.406307 Angstrom     dE/de3(zz)     0.000093 eV/strain
       alpha       50.266098 Degrees      dE/de4(yz)     0.000000 eV/strain
       beta        50.266136 Degrees      dE/de5(xz)     0.000000 eV/strain
       gamma       50.266122 Degrees      dE/de6(xy)     0.000000 eV/strain

  Primitive cell volume =           221.239895 Angs**3

  Density of cell =      2.271382 g/cm**3

  Non-primitive cell volume =           221.239895 Angs**3

  Final internal derivatives :

   No.  Atomic          a             b             c           Radius
        Label          (eV)          (eV)          (eV)        (eV/Angs)
      1 Sc    c       0.000000      0.000000      0.000000      0.000000
      2 Sc    c      -0.001205     -0.001204     -0.001204      0.000000
      3 Cl    c       0.000308     -0.000125     -0.000128      0.000000
      4 Cl    c      -0.000128      0.000306     -0.000126      0.000000
      5 Cl    c      -0.000126     -0.000129      0.000306      0.000000
      6 Cl    c      -0.000304      0.000133      0.000125      0.000000
      7 Cl    c       0.000126     -0.000302      0.000133      0.000000
      8 Cl    c       0.000134      0.000127     -0.000302      0.000000
      9 Cl    s       0.000105      0.000042     -0.000024      0.000000
     10 Cl    s      -0.000024      0.000105      0.000041      0.000000
     11 Cl    s       0.000040     -0.000025      0.000104      0.000000
     12 Cl    s      -0.000106     -0.000049      0.000033      0.000000
     13 Cl    s       0.000033     -0.000106     -0.000049      0.000000
     14 Cl    s      -0.000048      0.000034     -0.000106      0.000000
  Maximum abs         0.001205      0.001204      0.001204      0.000000

  Time to end of optimisation =      38.6453 seconds

  Timing analysis for GULP :

  Task / Subroutine                                          Time (Seconds)
  Calculation of reciprocal space energy and derivatives          1.2215
  Calculation of real space energy and derivatives               37.1460
  Sum of squares for fitting                                      0.2202
  Symmetry generation of equivalent positions                     0.0003
  Global summation overhead                                       0.0058

  Dump file written as ScCl3.grs

  Job Finished at 13:01.02 18th June       2021