  Job Started  at 15:13.33  7th February   2022

  Number of CPUs =     1

  Total number of configurations input =      1

*  Input for Configuration =   1                                               *

  Formula = Sc2Cl6

  Number of irreducible atoms/shells =       8

  Total number atoms/shells =       8

  Dimensionality = 3               :  Bulk

  Cartesian lattice vectors (Angstroms) :

        7.453000    0.000000    0.000000
        4.624520    5.844744    0.000000
        4.624520    2.237970    5.399307

  Cell parameters (Angstroms/Degrees):

  a =       7.4530    alpha =  51.6480
  b =       7.4530    beta  =  51.6480
  c =       7.4530    gamma =  51.6480

  Initial cell volume =         235.198534 Angs**3

  Temperature of configuration =   0.00     K

  Pressure of configuration =         0.000 GPa

  Fractional coordinates of asymmetric unit :

   No.  Atomic       x           y          z         Charge      Occupancy
        Label      (Frac)      (Frac)     (Frac)        (e)         (Frac)
      1 Sc    c    0.333900    0.333900    0.333900     3.00000    1.000000
      2 Sc    c    0.666100 *  0.666100 *  0.666100 *   3.00000    1.000000
      3 Cl    c    0.073700 *  0.443900 *  0.705300 *  -1.00000    1.000000
      4 Cl    c    0.294700 *  0.926300 *  0.556100 *  -1.00000    1.000000
      5 Cl    c    0.443900 *  0.705300 *  0.073700 *  -1.00000    1.000000
      6 Cl    c    0.556100 *  0.294700 *  0.926300 *  -1.00000    1.000000
      7 Cl    c    0.705300 *  0.073700 *  0.443900 *  -1.00000    1.000000
      8 Cl    c    0.926300 *  0.556100 *  0.294700 *  -1.00000    1.000000

*  General input information                                                   *

  Species output for all configurations :

  Species    Type    Atomic    Atomic    Charge       Radii (Angs)     Library
                     Number     Mass       (e)     Cova   Ionic  VDW   Symbol
    Sc       Core       21      44.96   3.000000   1.440  0.000  2.150
    Cl       Core       17      35.45  -1.000000   0.990  0.000  1.650

  Lattice summation method               =    Ewald          (3-D)
                                         =    Parry          (2-D)
                                         =    Saunders et al (1-D)
  Accuracy factor for lattice sums       =   12.000

  Analytic derivatives to be used

  Time limit = Infinity

  Maximum range for interatomic potentials =    100000.000000 Angstroms

  General interatomic potentials :

Atom  Types   Potential      Parameter       Value         Units   Cutoffs(Ang)
  1     2                                                            Min /  Max
Cl   c Sc   c Buckingham    Buckingham A     2381.9000    eV        0.000 12.000
                            Buckingham rho  0.33730000    Ang
                            Buckingham C     0.0000000    eV*Ang^6
Cl   c Cl   c Buckingham    Buckingham A     1227.2000    eV        0.000 12.000
                            Buckingham rho  0.32100000    Ang
                            Buckingham C     14.530000    eV*Ang^6

  Number of variables   =    2
  Number of observables =   27

   Observable no.  Type           Observable    Weight       Reference  Confign
          1        Derivative        0.000000        1.0000    2 x         1
          2        Derivative        0.000000        1.0000    2 y         1
          3        Derivative        0.000000        1.0000    2 z         1
          4        Derivative        0.000000        1.0000    3 x         1
          5        Derivative        0.000000        1.0000    3 y         1
          6        Derivative        0.000000        1.0000    3 z         1
          7        Derivative        0.000000        1.0000    4 x         1
          8        Derivative        0.000000        1.0000    4 y         1
          9        Derivative        0.000000        1.0000    4 z         1
         10        Derivative        0.000000        1.0000    5 x         1
         11        Derivative        0.000000        1.0000    5 y         1
         12        Derivative        0.000000        1.0000    5 z         1
         13        Derivative        0.000000        1.0000    6 x         1
         14        Derivative        0.000000        1.0000    6 y         1
         15        Derivative        0.000000        1.0000    6 z         1
         16        Derivative        0.000000        1.0000    7 x         1
         17        Derivative        0.000000        1.0000    7 y         1
         18        Derivative        0.000000        1.0000    7 z         1
         19        Derivative        0.000000        1.0000    8 x         1
         20        Derivative        0.000000        1.0000    8 y         1
         21        Derivative        0.000000        1.0000    8 z         1
         22        Derivative        0.000000        1.0000    a           1
         23        Derivative        0.000000        1.0000    b           1
         24        Derivative        0.000000        1.0000    c           1
         25        Derivative        0.000000        1.0000    alpha       1
         26        Derivative        0.000000        1.0000    beta        1
         27        Derivative        0.000000        1.0000    gamma       1

  Variables :

     Parameter No.       Parameter Value          Parameter Type  Species
             1               2381.900000          Buckingham A
             2                  0.337300          Buckingham rho

  Symmetry not used for fitting
  First derivatives of residuals to be used in fitting

  Maximum no. of cycles   =       5000
  Maximum step size       =  1000.0000
  Tolerance on parameters =  0.0000100
  Tolerance on function   =  0.0000100
  Tolerance on gradient   =  0.0001000
  Differencing interval   =  0.0001000

  Start of fitting :

  ** Hessian calculated **
  ** Hessian calculated **
  ** Hessian calculated **
  ** Hessian calculated **
  ** Hessian calculated **
  ** Hessian calculated **
  ** Hessian calculated **
  ** Hessian calculated **

  **** Fit completed successfully ****

  Final sum of squares =          1340.944880

  Final gradient norm  =             1.313869

  Final values of parameters :

 Parameter No.    Parameter        Parameter      Parameter Type  Species
                  Original         Final
         1           2381.900000     25859.981689 Buckingham A
         2              0.337300         0.250184 Buckingham rho

  Final values of numerical parameter gradients :

     Parameter No.       Parameter Gradient      Parameter Type  Species
             1                 -0.021546          Buckingham A
             2                  1.313693          Buckingham rho

  Final values of residuals :

   Observable no.  Type            Observable   Calculated    Residual  Error(%)
          1        Derivative         0.00000     -0.86803      0.75348
          2        Derivative         0.00000     -0.86803      0.75348
          3        Derivative         0.00000     -0.86803      0.75348
          4        Derivative         0.00000      3.80236     14.45796
          5        Derivative         0.00000      4.92334     24.23928
          6        Derivative         0.00000      2.27865      5.19224
          7        Derivative         0.00000     -2.27865      5.19224
          8        Derivative         0.00000     -3.80236     14.45796
          9        Derivative         0.00000     -4.92334     24.23928
         10        Derivative         0.00000      4.92334     24.23928
         11        Derivative         0.00000      2.27865      5.19224
         12        Derivative         0.00000      3.80236     14.45796
         13        Derivative         0.00000     -4.92334     24.23928
         14        Derivative         0.00000     -2.27865      5.19224
         15        Derivative         0.00000     -3.80236     14.45796
         16        Derivative         0.00000      2.27865      5.19224
         17        Derivative         0.00000      3.80236     14.45796
         18        Derivative         0.00000      4.92334     24.23928
         19        Derivative         0.00000     -3.80236     14.45796
         20        Derivative         0.00000     -4.92334     24.23928
         21        Derivative         0.00000     -2.27865      5.19224
         22        Derivative         0.00000     -2.51794      6.34002
         23        Derivative         0.00000    -19.58424    383.54244
         24        Derivative         0.00000    -22.47441    505.09900
         25        Derivative         0.00000      3.48640     12.15496
         26        Derivative         0.00000      7.20425     51.90128
         27        Derivative         0.00000     10.78470    116.30985

  Comparison of initial and final observables :

   Observable no.  Type            Observable   Initial       Final
          1        Derivative         0.00000     -0.43875     -0.86803
          2        Derivative         0.00000     -0.43875     -0.86803
          3        Derivative         0.00000     -0.43875     -0.86803
          4        Derivative         0.00000      6.67111      3.80236
          5        Derivative         0.00000      7.07075      4.92334
          6        Derivative         0.00000      6.26315      2.27865
          7        Derivative         0.00000     -6.26315     -2.27865
          8        Derivative         0.00000     -6.67111     -3.80236
          9        Derivative         0.00000     -7.07075     -4.92334
         10        Derivative         0.00000      7.07075      4.92334
         11        Derivative         0.00000      6.26315      2.27865
         12        Derivative         0.00000      6.67111      3.80236
         13        Derivative         0.00000     -7.07075     -4.92334
         14        Derivative         0.00000     -6.26315     -2.27865
         15        Derivative         0.00000     -6.67111     -3.80236
         16        Derivative         0.00000      6.26315      2.27865
         17        Derivative         0.00000      6.67111      3.80236
         18        Derivative         0.00000      7.07075      4.92334
         19        Derivative         0.00000     -6.67111     -3.80236
         20        Derivative         0.00000     -7.07075     -4.92334
         21        Derivative         0.00000     -6.26315     -2.27865
         22        Derivative         0.00000      1.45219     -2.51794
         23        Derivative         0.00000    -15.60688    -19.58424
         24        Derivative         0.00000    -18.49583    -22.47441
         25        Derivative         0.00000      3.48492      3.48640
         26        Derivative         0.00000      7.20120      7.20425
         27        Derivative         0.00000     10.78014     10.78470

  Maximum range for interatomic potentials =    100000.000000 Angstroms

  General interatomic potentials :

Atom  Types   Potential      Parameter       Value         Units   Cutoffs(Ang)
  1     2                                                            Min /  Max
Cl   c Sc   c Buckingham    Buckingham A     25859.982    eV        0.000 12.000
                            Buckingham rho  0.25018422    Ang
                            Buckingham C     0.0000000    eV*Ang^6
Cl   c Cl   c Buckingham    Buckingham A     1227.2000    eV        0.000 12.000
                            Buckingham rho  0.32100000    Ang
                            Buckingham C     14.530000    eV*Ang^6

  Total time to end of fitting =       1.5145 seconds

*  Output for configuration   1                                                *

  Components of energy :

  Interatomic potentials     =          13.91239025 eV
  Monopole - monopole (real) =         -33.23118263 eV
  Monopole - monopole (recip)=         -63.15383644 eV
  Monopole - monopole (total)=         -96.38501907 eV
  Total lattice energy       =         -82.47262882 eV
  Total lattice energy       =           -7957.3480 kJ/(mole unit cells)

  Number of variables =       27

  Maximum number of calculations  =          1000
  Maximum Hessian update interval =            10
  Maximum step size               =   1.000000000
  Maximum parameter tolerance     =   0.000010000
  Maximum function  tolerance     =   0.000010000
  Maximum gradient  tolerance     =   0.001000000
  Maximum gradient  component     =   0.010000000

  Symmetry not applied to optimisation

  Cell parameters to be optimised using strains

  Newton-Raphson optimiser to be used

  BFGS hessian update to be used

  Lower half triangular hessian to be used

  Start of bulk optimisation :

  ** Hessian calculated **
  ** Hessian calculated **
  ** Hessian calculated **
  ** Hessian calculated **
  ** Hessian calculated **

  **** Optimisation achieved ****

  Final energy =     -88.71946406 eV
  Final Gnorm  =       0.00009571

  Components of energy :

  Interatomic potentials     =           8.98556693 eV
  Monopole - monopole (real) =         -22.88647657 eV
  Monopole - monopole (recip)=         -74.81855443 eV
  Monopole - monopole (total)=         -97.70503099 eV
  Total lattice energy       =         -88.71946406 eV
  Total lattice energy       =           -8560.0721 kJ/(mole unit cells)

  Final fractional coordinates of atoms :

   No.  Atomic        x           y          z          Radius
        Label       (Frac)      (Frac)     (Frac)       (Angs)
     1  Sc    c     0.333900    0.333900    0.333900    0.000000
     2  Sc    c     0.833920    0.832473    0.835301    0.000000
     3  Cl    c     0.212355    0.468777    0.831387    0.000000
     4  Cl    c     0.333958    0.966571    0.700994    0.000000
     5  Cl    c     0.455431    0.836454    0.198824    0.000000
     6  Cl    c     0.712389    0.329918    0.970378    0.000000
     7  Cl    c     0.833857    0.199802    0.468204    0.000000
     8  Cl    c     0.955463    0.697592    0.337823    0.000000

  Final Cartesian lattice vectors (Angstroms) :

        5.007109   -1.550850   -1.036041
        1.904105    4.955891   -1.068619
        1.904029    0.910546    4.988638

  Final cell parameters and derivatives :

       a            5.343188 Angstrom     dE/de1(xx)    -0.000705 eV/strain
       b            5.415572 Angstrom     dE/de2(yy)    -0.000203 eV/strain
       c            5.416727 Angstrom     dE/de3(zz)     0.000007 eV/strain
       alpha       84.508864 Degrees      dE/de4(yz)    -0.000084 eV/strain
       beta        84.143692 Degrees      dE/de5(xz)     0.000377 eV/strain
       gamma       84.138019 Degrees      dE/de6(xy)    -0.001141 eV/strain

  Primitive cell volume =           154.530358 Angs**3

  Density of cell =      3.251920 g/cm**3

  Non-primitive cell volume =           154.530358 Angs**3

  Final internal derivatives :

   No.  Atomic          a             b             c           Radius
        Label          (eV)          (eV)          (eV)        (eV/Angs)
      1 Sc    c       0.000000      0.000000      0.000000      0.000000
      2 Sc    c      -0.000360     -0.000015     -0.000209      0.000000
      3 Cl    c       0.000584     -0.000306      0.000379      0.000000
      4 Cl    c       0.000409      0.000641      0.000293      0.000000
      5 Cl    c       0.000249      0.000163      0.000803      0.000000
      6 Cl    c      -0.000007     -0.000076     -0.000194      0.000000
      7 Cl    c      -0.000739     -0.000143     -0.001117      0.000000
      8 Cl    c      -0.000817     -0.000118      0.000019      0.000000
  Maximum abs         0.000817      0.000641      0.001117      0.000000

  Comparison of initial and final structures :

  Parameter   Initial value   Final value   Difference    Units      Percent
    Volume       235.198534    154.530358   -80.668177    Angs**3    -34.30
    a              7.453000      5.343188    -2.109812    Angstroms  -28.31
    b              7.453000      5.415572    -2.037428    Angstroms  -27.34
    c              7.453000      5.416727    -2.036273    Angstroms  -27.32
    alpha         51.648000     84.508864    32.860864    Degrees     63.62
    beta          51.648000     84.143692    32.495692    Degrees     62.92
    gamma         51.648000     84.138019    32.490019    Degrees     62.91
      1 x          0.333900      0.333900     0.000000    Fractional   0.00
      1 y          0.333900      0.333900     0.000000    Fractional   0.00
      1 z          0.333900      0.333900     0.000000    Fractional   0.00
      2 x          0.666100      0.833920     0.167820    Fractional  25.19
      2 y          0.666100      0.832473     0.166373    Fractional  24.98
      2 z          0.666100      0.835301     0.169201    Fractional  25.40
      3 x          0.073700      0.212355     0.138655    Fractional 188.13
      3 y          0.443900      0.468777     0.024877    Fractional   5.60
      3 z          0.705300      0.831387     0.126087    Fractional  17.88
      4 x          0.294700      0.333958     0.039258    Fractional  13.32
      4 y          0.926300      0.966571     0.040271    Fractional   4.35
      4 z          0.556100      0.700994     0.144894    Fractional  26.06
      5 x          0.443900      0.455431     0.011531    Fractional   2.60
      5 y          0.705300      0.836454     0.131154    Fractional  18.60
      5 z          0.073700      0.198824     0.125124    Fractional 169.77
      6 x          0.556100      0.712389     0.156289    Fractional  28.10
      6 y          0.294700      0.329918     0.035218    Fractional  11.95
      6 z          0.926300      0.970378     0.044078    Fractional   4.76
      7 x          0.705300      0.833857     0.128557    Fractional  18.23
      7 y          0.073700      0.199802     0.126102    Fractional 171.10
      7 z          0.443900      0.468204     0.024304    Fractional   5.48
      8 x          0.926300      0.955463     0.029163    Fractional   3.15
      8 y          0.556100      0.697592     0.141492    Fractional  25.44
      8 z          0.294700      0.337823     0.043123    Fractional  14.63

  Time to end of optimisation =       1.5812 seconds

  Timing analysis for GULP :

  Task / Subroutine                                          Time (Seconds)
  Calculation of reciprocal space energy and derivatives          0.0758
  Calculation of real space energy and derivatives                1.4628
  Sum of squares for fitting                                      0.0197
  Symmetry generation of equivalent positions                     0.0001
  Global summation overhead                                       0.0006

  Dump file written as ScCl3.grs

  Job Finished at 15:13.34  7th February   2022