  Job Started  at 15:30.03  7th February   2022

  Number of CPUs =     1

  Total number of configurations input =      1

*  Input for Configuration =   1                                               *

  Formula = Sc2Cl6

  Number of irreducible atoms/shells =       8

  Total number atoms/shells =       8

  Dimensionality = 3               :  Bulk

  Cartesian lattice vectors (Angstroms) :

        7.453000    0.000000    0.000000
        4.624520    5.844744    0.000000
        4.624520    2.237970    5.399307

  Cell parameters (Angstroms/Degrees):

  a =       7.4530    alpha =  51.6480
  b =       7.4530    beta  =  51.6480
  c =       7.4530    gamma =  51.6480

  Initial cell volume =         235.198534 Angs**3

  Temperature of configuration =   0.00     K

  Pressure of configuration =         0.000 GPa

  Fractional coordinates of asymmetric unit :

   No.  Atomic       x           y          z         Charge      Occupancy
        Label      (Frac)      (Frac)     (Frac)        (e)         (Frac)
      1 Sc    c    0.333900    0.333900    0.333900     3.00000    1.000000
      2 Sc    c    0.666100 *  0.666100 *  0.666100 *   3.00000    1.000000
      3 Cl    c    0.073700 *  0.443900 *  0.705300 *  -1.00000    1.000000
      4 Cl    c    0.294700 *  0.926300 *  0.556100 *  -1.00000    1.000000
      5 Cl    c    0.443900 *  0.705300 *  0.073700 *  -1.00000    1.000000
      6 Cl    c    0.556100 *  0.294700 *  0.926300 *  -1.00000    1.000000
      7 Cl    c    0.705300 *  0.073700 *  0.443900 *  -1.00000    1.000000
      8 Cl    c    0.926300 *  0.556100 *  0.294700 *  -1.00000    1.000000

*  General input information                                                   *

  Species output for all configurations :

  Species    Type    Atomic    Atomic    Charge       Radii (Angs)     Library
                     Number     Mass       (e)     Cova   Ionic  VDW   Symbol
    Sc       Core       21      44.96   3.000000   1.440  0.000  2.150
    Cl       Core       17      35.45  -1.000000   0.990  0.000  1.650

  Lattice summation method               =    Ewald          (3-D)
                                         =    Parry          (2-D)
                                         =    Saunders et al (1-D)
  Accuracy factor for lattice sums       =   12.000

  Analytic derivatives to be used

  Time limit = Infinity

  Maximum range for interatomic potentials =    100000.000000 Angstroms

  General interatomic potentials :

Atom  Types   Potential      Parameter       Value         Units   Cutoffs(Ang)
  1     2                                                            Min /  Max
Cl   c Sc   c Buckingham    Buckingham A     2704.5500    eV        0.000 12.000
                            Buckingham rho  0.35280000    Ang
                            Buckingham C     0.0000000    eV*Ang^6
Cl   c Cl   c Buckingham    Buckingham A     1227.2000    eV        0.000 12.000
                            Buckingham rho  0.32100000    Ang
                            Buckingham C     14.530000    eV*Ang^6

  Number of variables   =    2
  Number of observables =   27

   Observable no.  Type           Observable    Weight       Reference  Confign
          1        Derivative        0.000000        1.0000    2 x         1
          2        Derivative        0.000000        1.0000    2 y         1
          3        Derivative        0.000000        1.0000    2 z         1
          4        Derivative        0.000000        1.0000    3 x         1
          5        Derivative        0.000000        1.0000    3 y         1
          6        Derivative        0.000000        1.0000    3 z         1
          7        Derivative        0.000000        1.0000    4 x         1
          8        Derivative        0.000000        1.0000    4 y         1
          9        Derivative        0.000000        1.0000    4 z         1
         10        Derivative        0.000000        1.0000    5 x         1
         11        Derivative        0.000000        1.0000    5 y         1
         12        Derivative        0.000000        1.0000    5 z         1
         13        Derivative        0.000000        1.0000    6 x         1
         14        Derivative        0.000000        1.0000    6 y         1
         15        Derivative        0.000000        1.0000    6 z         1
         16        Derivative        0.000000        1.0000    7 x         1
         17        Derivative        0.000000        1.0000    7 y         1
         18        Derivative        0.000000        1.0000    7 z         1
         19        Derivative        0.000000        1.0000    8 x         1
         20        Derivative        0.000000        1.0000    8 y         1
         21        Derivative        0.000000        1.0000    8 z         1
         22        Derivative        0.000000        1.0000    a           1
         23        Derivative        0.000000        1.0000    b           1
         24        Derivative        0.000000        1.0000    c           1
         25        Derivative        0.000000        1.0000    alpha       1
         26        Derivative        0.000000        1.0000    beta        1
         27        Derivative        0.000000        1.0000    gamma       1

  Variables :

     Parameter No.       Parameter Value          Parameter Type  Species
             1               2704.550000          Buckingham A
             2                  0.352800          Buckingham rho

  Symmetry not used for fitting
  First derivatives of residuals to be used in fitting

  Maximum no. of cycles   =       5000
  Maximum step size       =  1000.0000
  Tolerance on parameters =  0.0000100
  Tolerance on function   =  0.0000100
  Tolerance on gradient   =  0.0001000
  Differencing interval   =  0.0001000

  Start of fitting :

  ** Hessian calculated **
  ** Hessian calculated **
  ** Hessian calculated **
  ** Hessian calculated **
  ** Hessian calculated **
  ** Hessian calculated **
  ** Hessian calculated **

  **** Fit completed successfully ****

  Final sum of squares =          1340.976831

  Final gradient norm  =             1.950793

  Final values of parameters :

 Parameter No.    Parameter        Parameter      Parameter Type  Species
                  Original         Final
         1           2704.550000     23764.631750 Buckingham A
         2              0.352800         0.252549 Buckingham rho

  Final values of numerical parameter gradients :

     Parameter No.       Parameter Gradient      Parameter Type  Species
             1                 -0.036954          Buckingham A
             2                  1.950443          Buckingham rho

  Final values of residuals :

   Observable no.  Type            Observable   Calculated    Residual  Error(%)
          1        Derivative         0.00000     -0.85394      0.72921
          2        Derivative         0.00000     -0.85394      0.72921
          3        Derivative         0.00000     -0.85394      0.72921
          4        Derivative         0.00000      3.79892     14.43177
          5        Derivative         0.00000      4.92494     24.25501
          6        Derivative         0.00000      2.28092      5.20261
          7        Derivative         0.00000     -2.28092      5.20261
          8        Derivative         0.00000     -3.79892     14.43177
          9        Derivative         0.00000     -4.92494     24.25501
         10        Derivative         0.00000      4.92494     24.25501
         11        Derivative         0.00000      2.28092      5.20261
         12        Derivative         0.00000      3.79892     14.43177
         13        Derivative         0.00000     -4.92494     24.25501
         14        Derivative         0.00000     -2.28092      5.20261
         15        Derivative         0.00000     -3.79892     14.43177
         16        Derivative         0.00000      2.28092      5.20261
         17        Derivative         0.00000      3.79892     14.43177
         18        Derivative         0.00000      4.92494     24.25501
         19        Derivative         0.00000     -3.79892     14.43177
         20        Derivative         0.00000     -4.92494     24.25501
         21        Derivative         0.00000     -2.28092      5.20261
         22        Derivative         0.00000     -2.51835      6.34207
         23        Derivative         0.00000    -19.58526    383.58235
         24        Derivative         0.00000    -22.47553    505.14945
         25        Derivative         0.00000      3.48652     12.15583
         26        Derivative         0.00000      7.20451     51.90501
         27        Derivative         0.00000     10.78509    116.31819

  Comparison of initial and final observables :

   Observable no.  Type            Observable   Initial       Final
          1        Derivative         0.00000     -0.60849     -0.85394
          2        Derivative         0.00000     -0.60849     -0.85394
          3        Derivative         0.00000     -0.60849     -0.85394
          4        Derivative         0.00000     -8.65333      3.79892
          5        Derivative         0.00000     -3.89867      4.92494
          6        Derivative         0.00000    -13.87383      2.28092
          7        Derivative         0.00000     13.87383     -2.28092
          8        Derivative         0.00000      8.65333     -3.79892
          9        Derivative         0.00000      3.89867     -4.92494
         10        Derivative         0.00000     -3.89867      4.92494
         11        Derivative         0.00000    -13.87383      2.28092
         12        Derivative         0.00000     -8.65333      3.79892
         13        Derivative         0.00000      3.89867     -4.92494
         14        Derivative         0.00000     13.87383     -2.28092
         15        Derivative         0.00000      8.65333     -3.79892
         16        Derivative         0.00000    -13.87383      2.28092
         17        Derivative         0.00000     -8.65333      3.79892
         18        Derivative         0.00000     -3.89867      4.92494
         19        Derivative         0.00000      8.65333     -3.79892
         20        Derivative         0.00000      3.89867     -4.92494
         21        Derivative         0.00000     13.87383     -2.28092
         22        Derivative         0.00000    -19.47184     -2.51835
         23        Derivative         0.00000    -36.91264    -19.58526
         24        Derivative         0.00000    -39.86623    -22.47553
         25        Derivative         0.00000      3.56290      3.48652
         26        Derivative         0.00000      7.36234      7.20451
         27        Derivative         0.00000     11.02136     10.78509

  Maximum range for interatomic potentials =    100000.000000 Angstroms

  General interatomic potentials :

Atom  Types   Potential      Parameter       Value         Units   Cutoffs(Ang)
  1     2                                                            Min /  Max
Cl   c Sc   c Buckingham    Buckingham A     23764.632    eV        0.000 12.000
                            Buckingham rho  0.25254872    Ang
                            Buckingham C     0.0000000    eV*Ang^6
Cl   c Cl   c Buckingham    Buckingham A     1227.2000    eV        0.000 12.000
                            Buckingham rho  0.32100000    Ang
                            Buckingham C     14.530000    eV*Ang^6

  Total time to end of fitting =       1.3242 seconds

*  Output for configuration   1                                                *

  Components of energy :

  Interatomic potentials     =          14.04185277 eV
  Monopole - monopole (real) =         -33.23118263 eV
  Monopole - monopole (recip)=         -63.15383644 eV
  Monopole - monopole (total)=         -96.38501907 eV
  Total lattice energy       =         -82.34316630 eV
  Total lattice energy       =           -7944.8568 kJ/(mole unit cells)

  Number of variables =       27

  Maximum number of calculations  =          1000
  Maximum Hessian update interval =            10
  Maximum step size               =   1.000000000
  Maximum parameter tolerance     =   0.000010000
  Maximum function  tolerance     =   0.000010000
  Maximum gradient  tolerance     =   0.001000000
  Maximum gradient  component     =   0.010000000

  Symmetry not applied to optimisation

  Cell parameters to be optimised using strains

  Newton-Raphson optimiser to be used

  BFGS hessian update to be used

  Lower half triangular hessian to be used

  Start of bulk optimisation :

  ** Hessian calculated **
  ** Hessian calculated **
  ** Hessian calculated **
  ** Hessian calculated **
  ** Hessian calculated **
  ** Hessian calculated **
  ** Hessian calculated **
  ** Hessian calculated **
  ** Hessian calculated **
  ** Hessian calculated **

  **** Optimisation achieved ****

  Final energy =     -89.02292733 eV
  Final Gnorm  =       0.00026411

  Components of energy :

  Interatomic potentials     =           8.99399419 eV
  Monopole - monopole (real) =         -21.09855266 eV
  Monopole - monopole (recip)=         -76.91836885 eV
  Monopole - monopole (total)=         -98.01692151 eV
  Total lattice energy       =         -89.02292733 eV
  Total lattice energy       =           -8589.3516 kJ/(mole unit cells)

  Final fractional coordinates of atoms :

   No.  Atomic        x           y          z          Radius
        Label       (Frac)      (Frac)     (Frac)       (Angs)
     1  Sc    c     0.333900    0.333900    0.333900    0.000000
     2  Sc    c     0.804048    0.833911    0.863806    0.000000
     3  Cl    c     0.285311    0.583895    0.815167    0.000000
     4  Cl    c     0.285332    0.083912    0.815179    0.000000
     5  Cl    c     0.388828    0.833912    0.278876    0.000000
     6  Cl    c     0.749079    0.333910    0.918807    0.000000
     7  Cl    c     0.852595    0.083904    0.382524    0.000000
     8  Cl    c     0.852566    0.583913    0.382535    0.000000

  Final Cartesian lattice vectors (Angstroms) :

        4.495953   -1.632241   -0.933027
        1.723465    5.544161   -1.393990
        1.622161    0.639907    4.550823

  Final cell parameters and derivatives :

       a            4.873228 Angstrom     dE/de1(xx)     0.000300 eV/strain
       b            5.970868 Angstrom     dE/de2(yy)    -0.001174 eV/strain
       c            4.873488 Angstrom     dE/de3(zz)    -0.000765 eV/strain
       alpha       90.000625 Degrees      dE/de4(yz)    -0.000590 eV/strain
       beta        85.162918 Degrees      dE/de5(xz)     0.001968 eV/strain
       gamma       90.000317 Degrees      dE/de6(xy)    -0.000459 eV/strain

  Primitive cell volume =           141.300774 Angs**3

  Density of cell =      3.556388 g/cm**3

  Non-primitive cell volume =           141.300774 Angs**3

  Final internal derivatives :

   No.  Atomic          a             b             c           Radius
        Label          (eV)          (eV)          (eV)        (eV/Angs)
      1 Sc    c       0.000000      0.000000      0.000000      0.000000
      2 Sc    c       0.000686      0.002122      0.001319      0.000000
      3 Cl    c      -0.001148     -0.002045      0.000417      0.000000
      4 Cl    c       0.000741      0.001299      0.002178      0.000000
      5 Cl    c       0.000239      0.000003     -0.001165      0.000000
      6 Cl    c      -0.000746      0.000939      0.000255      0.000000
      7 Cl    c      -0.000774     -0.000470     -0.000877      0.000000
      8 Cl    c      -0.004031      0.002053     -0.000174      0.000000
  Maximum abs         0.004031      0.002122      0.002178      0.000000

  Comparison of initial and final structures :

  Parameter   Initial value   Final value   Difference    Units      Percent
    Volume       235.198534    141.300774   -93.897760    Angs**3    -39.92
    a              7.453000      4.873228    -2.579772    Angstroms  -34.61
    b              7.453000      5.970868    -1.482132    Angstroms  -19.89
    c              7.453000      4.873488    -2.579512    Angstroms  -34.61
    alpha         51.648000     90.000625    38.352625    Degrees     74.26
    beta          51.648000     85.162918    33.514918    Degrees     64.89
    gamma         51.648000     90.000317    38.352317    Degrees     74.26
      1 x          0.333900      0.333900     0.000000    Fractional   0.00
      1 y          0.333900      0.333900     0.000000    Fractional   0.00
      1 z          0.333900      0.333900     0.000000    Fractional   0.00
      2 x          0.666100      0.804048     0.137948    Fractional  20.71
      2 y          0.666100      0.833911     0.167811    Fractional  25.19
      2 z          0.666100      0.863806     0.197706    Fractional  29.68
      3 x          0.073700      0.285311     0.211611    Fractional 287.12
      3 y          0.443900      0.583895     0.139995    Fractional  31.54
      3 z          0.705300      0.815167     0.109867    Fractional  15.58
      4 x          0.294700      0.285332     0.009368    Fractional   3.18
      4 y          0.926300      0.083912     0.157612    Fractional  17.02
      4 z          0.556100      0.815179     0.259079    Fractional  46.59
      5 x          0.443900      0.388828     0.055072    Fractional  12.41
      5 y          0.705300      0.833912     0.128612    Fractional  18.24
      5 z          0.073700      0.278876     0.205176    Fractional 278.39
      6 x          0.556100      0.749079     0.192979    Fractional  34.70
      6 y          0.294700      0.333910     0.039210    Fractional  13.31
      6 z          0.926300      0.918807     0.007493    Fractional   0.81
      7 x          0.705300      0.852595     0.147295    Fractional  20.88
      7 y          0.073700      0.083904     0.010204    Fractional  13.84
      7 z          0.443900      0.382524     0.061376    Fractional  13.83
      8 x          0.926300      0.852566     0.073734    Fractional   7.96
      8 y          0.556100      0.583913     0.027813    Fractional   5.00
      8 z          0.294700      0.382535     0.087835    Fractional  29.80

  Time to end of optimisation =       1.4983 seconds

  Timing analysis for GULP :

  Task / Subroutine                                          Time (Seconds)
  Calculation of reciprocal space energy and derivatives          0.0790
  Calculation of real space energy and derivatives                1.3753
  Calculation of matrix inversion                                 0.0001
  Sum of squares for fitting                                      0.0177
  Symmetry generation of equivalent positions                     0.0001
  Global summation overhead                                       0.0007

  Dump file written as ScCl3.grs

  Job Finished at 15:30.05  7th February   2022