  Job Started  at 15:34.11  4th April      2022

  Number of CPUs =     1

  Total number of configurations input =      1

*  Input for Configuration =   1                                               *

  Formula = Sc2Cl6

  Number of irreducible atoms/shells =       8

  Total number atoms/shells =       8

  Dimensionality = 3               :  Bulk

  Cartesian lattice vectors (Angstroms) :

        7.453100    0.000000    0.000000
        4.624571    5.844830    0.000000
        4.624571    2.238000    5.399388

  Cell parameters (Angstroms/Degrees):

  a =       7.4531    alpha =  51.6481
  b =       7.4531    beta  =  51.6481
  c =       7.4531    gamma =  51.6481

  Initial cell volume =         235.208707 Angs**3

  Temperature of configuration =   0.00     K

  Pressure of configuration =         0.000 GPa

  Fractional coordinates of asymmetric unit :

   No.  Atomic       x           y          z         Charge      Occupancy
        Label      (Frac)      (Frac)     (Frac)        (e)         (Frac)
      1 Sc    c    0.666064    0.666064    0.666064     3.00000    1.000000
      2 Sc    c    0.333936 *  0.333936 *  0.333936 *   3.00000    1.000000
      3 Cl    c    0.294736 *  0.926265 *  0.556066 *  -1.00000    1.000000
      4 Cl    c    0.926265 *  0.556066 *  0.294736 *  -1.00000    1.000000
      5 Cl    c    0.443934 *  0.705264 *  0.073735 *  -1.00000    1.000000
      6 Cl    c    0.073735 *  0.443934 *  0.705264 *  -1.00000    1.000000
      7 Cl    c    0.705264 *  0.073735 *  0.443934 *  -1.00000    1.000000
      8 Cl    c    0.556066 *  0.294736 *  0.926265 *  -1.00000    1.000000

*  General input information                                                   *

  Species output for all configurations :

  Species    Type    Atomic    Atomic    Charge       Radii (Angs)     Library
                     Number     Mass       (e)     Cova   Ionic  VDW   Symbol
    Sc       Core       21      44.96   3.000000   1.440  0.000  2.150
    Cl       Core       17      35.45  -1.000000   0.990  0.000  1.650

  Lattice summation method               =    Ewald          (3-D)
                                         =    Parry          (2-D)
                                         =    Saunders et al (1-D)
  Accuracy factor for lattice sums       =   12.000

  Analytic derivatives to be used

  Time limit = Infinity

  Maximum range for interatomic potentials =    100000.000000 Angstroms

  General interatomic potentials :

Atom  Types   Potential      Parameter       Value         Units   Cutoffs(Ang)
  1     2                                                            Min /  Max
Cl   c Sc   c Buckingham    Buckingham A     1736.1200    eV        0.000 12.000
                            Buckingham rho  0.29270000    Ang
                            Buckingham C     0.0000000    eV*Ang^6
Cl   c Cl   c Buckingham    Buckingham A     1227.2000    eV        0.000 12.000
                            Buckingham rho  0.32100000    Ang
                            Buckingham C     14.530000    eV*Ang^6

  Number of variables   =    2
  Number of observables =   27

   Observable no.  Type           Observable    Weight       Reference  Confign
          1        Derivative        0.000000        1.0000    2 x         1
          2        Derivative        0.000000        1.0000    2 y         1
          3        Derivative        0.000000        1.0000    2 z         1
          4        Derivative        0.000000        1.0000    3 x         1
          5        Derivative        0.000000        1.0000    3 y         1
          6        Derivative        0.000000        1.0000    3 z         1
          7        Derivative        0.000000        1.0000    4 x         1
          8        Derivative        0.000000        1.0000    4 y         1
          9        Derivative        0.000000        1.0000    4 z         1
         10        Derivative        0.000000        1.0000    5 x         1
         11        Derivative        0.000000        1.0000    5 y         1
         12        Derivative        0.000000        1.0000    5 z         1
         13        Derivative        0.000000        1.0000    6 x         1
         14        Derivative        0.000000        1.0000    6 y         1
         15        Derivative        0.000000        1.0000    6 z         1
         16        Derivative        0.000000        1.0000    7 x         1
         17        Derivative        0.000000        1.0000    7 y         1
         18        Derivative        0.000000        1.0000    7 z         1
         19        Derivative        0.000000        1.0000    8 x         1
         20        Derivative        0.000000        1.0000    8 y         1
         21        Derivative        0.000000        1.0000    8 z         1
         22        Derivative        0.000000        1.0000    a           1
         23        Derivative        0.000000        1.0000    b           1
         24        Derivative        0.000000        1.0000    c           1
         25        Derivative        0.000000        1.0000    alpha       1
         26        Derivative        0.000000        1.0000    beta        1
         27        Derivative        0.000000        1.0000    gamma       1

  Variables :

     Parameter No.       Parameter Value          Parameter Type  Species
             1               1736.120000          Buckingham A
             2                  0.292700          Buckingham rho

  Simultaneous optimisation will be performed during fitting
  First derivatives of residuals to be used in fitting

  Maximum no. of cycles   =       5000
  Maximum step size       =  1000.0000
  Tolerance on parameters =  0.0000100
  Tolerance on function   =  0.0000100
  Tolerance on gradient   =  0.0001000
  Differencing interval   =  0.0001000

  Start of fitting :

  ** Hessian calculated **
  ** Hessian calculated **
  ** Hessian calculated **
  ** Hessian calculated **
  ** Hessian calculated **
  ** Hessian calculated **
  ** Hessian calculated **
  ** Hessian calculated **

  **** Fit completed successfully ****

  Final sum of squares =          1342.685161

  Final gradient norm  =             1.018909

  Final values of parameters :

 Parameter No.    Parameter        Parameter      Parameter Type  Species
                  Original         Final
         1           1736.120000     26156.477192 Buckingham A
         2              0.292700         0.249878 Buckingham rho

  Final values of numerical parameter gradients :

     Parameter No.       Parameter Gradient      Parameter Type  Species
             1                 -0.007985          Buckingham A
             2                 -1.018878          Buckingham rho

  Final values of residuals :

   Observable no.  Type            Observable   Calculated    Residual  Error(%)
          1        Derivative         0.00000      0.97387      0.94842
          2        Derivative         0.00000      0.97387      0.94842
          3        Derivative         0.00000      0.97387      0.94842
          4        Derivative         0.00000     -2.26047      5.10971
          5        Derivative         0.00000     -3.84155     14.75749
          6        Derivative         0.00000     -4.90889     24.09722
          7        Derivative         0.00000     -3.84155     14.75749
          8        Derivative         0.00000     -4.90889     24.09722
          9        Derivative         0.00000     -2.26047      5.10971
         10        Derivative         0.00000      4.90889     24.09722
         11        Derivative         0.00000      2.26047      5.10971
         12        Derivative         0.00000      3.84155     14.75749
         13        Derivative         0.00000      3.84155     14.75749
         14        Derivative         0.00000      4.90889     24.09722
         15        Derivative         0.00000      2.26047      5.10971
         16        Derivative         0.00000      2.26047      5.10971
         17        Derivative         0.00000      3.84155     14.75749
         18        Derivative         0.00000      4.90889     24.09722
         19        Derivative         0.00000     -4.90889     24.09722
         20        Derivative         0.00000     -2.26047      5.10971
         21        Derivative         0.00000     -3.84155     14.75749
         22        Derivative         0.00000     -2.51740      6.33729
         23        Derivative         0.00000    -19.59036    383.78222
         24        Derivative         0.00000    -22.48167    505.42552
         25        Derivative         0.00000      3.48778     12.16461
         26        Derivative         0.00000      7.20710     51.94226
         27        Derivative         0.00000     10.78895    116.40152

  Comparison of initial and final observables :

   Observable no.  Type            Observable   Initial       Final
          1        Derivative         0.00000      0.10820      0.97387
          2        Derivative         0.00000      0.10820      0.97387
          3        Derivative         0.00000      0.10820      0.97387
          4        Derivative         0.00000    -35.36241     -2.26047
          5        Derivative         0.00000    -28.78159     -3.84155
          6        Derivative         0.00000    -22.91290     -4.90889
          7        Derivative         0.00000    -28.78159     -3.84155
          8        Derivative         0.00000    -22.91290     -4.90889
          9        Derivative         0.00000    -35.36241     -2.26047
         10        Derivative         0.00000     22.91290      4.90889
         11        Derivative         0.00000     35.36241      2.26047
         12        Derivative         0.00000     28.78159      3.84155
         13        Derivative         0.00000     28.78159      3.84155
         14        Derivative         0.00000     22.91290      4.90889
         15        Derivative         0.00000     35.36241      2.26047
         16        Derivative         0.00000     35.36241      2.26047
         17        Derivative         0.00000     28.78159      3.84155
         18        Derivative         0.00000     22.91290      4.90889
         19        Derivative         0.00000    -22.91290     -4.90889
         20        Derivative         0.00000    -35.36241     -2.26047
         21        Derivative         0.00000    -28.78159     -3.84155
         22        Derivative         0.00000     31.61471     -2.51740
         23        Derivative         0.00000     15.06143    -19.59036
         24        Derivative         0.00000     12.25813    -22.48167
         25        Derivative         0.00000      3.38162      3.48778
         26        Derivative         0.00000      6.98772      7.20710
         27        Derivative         0.00000     10.46055     10.78895

  Maximum range for interatomic potentials =    100000.000000 Angstroms

  General interatomic potentials :

Atom  Types   Potential      Parameter       Value         Units   Cutoffs(Ang)
  1     2                                                            Min /  Max
Cl   c Sc   c Buckingham    Buckingham A     26156.477    eV        0.000 12.000
                            Buckingham rho  0.24987817    Ang
                            Buckingham C     0.0000000    eV*Ang^6
Cl   c Cl   c Buckingham    Buckingham A     1227.2000    eV        0.000 12.000
                            Buckingham rho  0.32100000    Ang
                            Buckingham C     14.530000    eV*Ang^6

  Total time to end of fitting =       1.8681 seconds

*  Output for configuration   1                                                *

  Components of energy :

  Interatomic potentials     =          13.89609169 eV
  Monopole - monopole (real) =         -33.22807637 eV
  Monopole - monopole (recip)=         -63.15193379 eV
  Monopole - monopole (total)=         -96.38001017 eV
  Total lattice energy       =         -82.48391848 eV
  Total lattice energy       =           -7958.4373 kJ/(mole unit cells)

  Number of variables =       27

  Maximum number of calculations  =          1000
  Maximum Hessian update interval =            10
  Maximum step size               =   1.000000000
  Maximum parameter tolerance     =   0.000010000
  Maximum function  tolerance     =   0.000010000
  Maximum gradient  tolerance     =   0.001000000
  Maximum gradient  component     =   0.010000000

  Cell parameters to be optimised using strains

  Newton-Raphson optimiser to be used

  BFGS hessian update to be used

  Lower half triangular hessian to be used

  Start of bulk optimisation :

  ** Hessian calculated **
  ** Hessian calculated **
  ** Hessian calculated **
  ** Hessian calculated **
  ** Hessian calculated **
  ** Hessian calculated **
  ** Hessian calculated **
  ** Hessian calculated **

  **** Optimisation achieved ****

  Final energy =     -89.17872275 eV
  Final Gnorm  =       0.00034263

  Components of energy :

  Interatomic potentials     =           8.95121436 eV
  Monopole - monopole (real) =         -21.11092057 eV
  Monopole - monopole (recip)=         -77.01901654 eV
  Monopole - monopole (total)=         -98.12993711 eV
  Total lattice energy       =         -89.17872275 eV
  Total lattice energy       =           -8604.3835 kJ/(mole unit cells)

  Final fractional coordinates of atoms :

   No.  Atomic        x           y          z          Radius
        Label       (Frac)      (Frac)     (Frac)       (Angs)
     1  Sc    c     0.666064    0.666064    0.666064    0.000000
     2  Sc    c     0.166071    0.135800    0.196167    0.000000
     3  Cl    c     0.166051    0.720517    0.611759    0.000000
     4  Cl    c     0.916070    0.617463    0.147761    0.000000
     5  Cl    c     0.416041    0.617488    0.147752    0.000000
     6  Cl    c     0.916049    0.184405    0.714468    0.000000
     7  Cl    c     0.666043    0.081365    0.250474    0.000000
     8  Cl    c     0.416067    0.184408    0.714461    0.000000

  Final Cartesian lattice vectors (Angstroms) :

        5.411455   -2.082723   -1.393116
        1.504518    4.533328   -0.933354
        1.505718    0.872440    4.544527

  Final cell parameters and derivatives :

       a            5.963418 Angstrom     dE/de1(xx)     0.004293 eV/strain
       b            4.866804 Angstrom     dE/de2(yy)     0.002553 eV/strain
       c            4.866319 Angstrom     dE/de3(zz)     0.002570 eV/strain
       alpha       85.207276 Degrees      dE/de4(yz)     0.001755 eV/strain
       beta        89.999961 Degrees      dE/de5(xz)     0.000430 eV/strain
       gamma       89.999534 Degrees      dE/de6(xy)    -0.000134 eV/strain

  Primitive cell volume =           140.740327 Angs**3

  Density of cell =      3.570550 g/cm**3

  Non-primitive cell volume =           140.740327 Angs**3

  Final internal derivatives :

   No.  Atomic          a             b             c           Radius
        Label          (eV)          (eV)          (eV)        (eV/Angs)
      1 Sc    c       0.000000      0.000000      0.000000      0.000000
      2 Sc    c       0.002255     -0.004222      0.002522      0.000000
      3 Cl    c      -0.000661      0.001335      0.001470      0.000000
      4 Cl    c       0.001471      0.000178     -0.000255      0.000000
      5 Cl    c      -0.001300      0.002314      0.000122      0.000000
      6 Cl    c       0.000438     -0.000201     -0.001020      0.000000
      7 Cl    c      -0.001702     -0.000284     -0.000797      0.000000
      8 Cl    c      -0.000584     -0.001072     -0.001185      0.000000
  Maximum abs         0.002255      0.004222      0.002522      0.000000

  Comparison of initial and final structures :

  Parameter   Initial value   Final value   Difference    Units      Percent
    Volume       235.208707    140.740327   -94.468380    Angs**3    -40.16
    a              7.453100      5.963418    -1.489682    Angstroms  -19.99
    b              7.453100      4.866804    -2.586296    Angstroms  -34.70
    c              7.453100      4.866319    -2.586781    Angstroms  -34.71
    alpha         51.648100     85.207276    33.559176    Degrees     64.98
    beta          51.648100     89.999961    38.351861    Degrees     74.26
    gamma         51.648100     89.999534    38.351434    Degrees     74.26
      1 x          0.666064      0.666064     0.000000    Fractional   0.00
      1 y          0.666064      0.666064     0.000000    Fractional   0.00
      1 z          0.666064      0.666064     0.000000    Fractional   0.00
      2 x          0.333936      0.166071     0.167865    Fractional  50.27
      2 y          0.333936      0.135800     0.198136    Fractional  59.33
      2 z          0.333936      0.196167     0.137769    Fractional  41.26
      3 x          0.294736      0.166051     0.128685    Fractional  43.66
      3 y          0.926265      0.720517     0.205748    Fractional  22.21
      3 z          0.556066      0.611759     0.055693    Fractional  10.02
      4 x          0.926265      0.916070     0.010195    Fractional   1.10
      4 y          0.556066      0.617463     0.061397    Fractional  11.04
      4 z          0.294736      0.147761     0.146975    Fractional  49.87
      5 x          0.443934      0.416041     0.027893    Fractional   6.28
      5 y          0.705264      0.617488     0.087776    Fractional  12.45
      5 z          0.073735      0.147752     0.074017    Fractional 100.38
      6 x          0.073735      0.916049     0.157686    Fractional 213.85
      6 y          0.443934      0.184405     0.259529    Fractional  58.46
      6 z          0.705264      0.714468     0.009204    Fractional   1.30
      7 x          0.705264      0.666043     0.039221    Fractional   5.56
      7 y          0.073735      0.081365     0.007630    Fractional  10.35
      7 z          0.443934      0.250474     0.193460    Fractional  43.58
      8 x          0.556066      0.416067     0.139999    Fractional  25.18
      8 y          0.294736      0.184408     0.110328    Fractional  37.43
      8 z          0.926265      0.714461     0.211804    Fractional  22.87

  Time to end of optimisation =       1.9720 seconds

  Timing analysis for GULP :

  Task / Subroutine                                          Time (Seconds)
  Calculation of reciprocal space energy and derivatives          0.0966
  Calculation of real space energy and derivatives                1.8357
  Sum of squares for fitting                                      0.0248
  Global summation overhead                                       0.0008

  Dump file written as ScCl3.grs

  Job Finished at 15:34.13  4th April      2022