  Job Started  at 13:57.24 26th July       2022

  Number of CPUs =     1

  Total number of configurations input =      1

*  Input for Configuration =   1                                               *

  Formula = Li17Sc5Cl32

  Number of irreducible atoms/shells =      86

  Total number atoms/shells =      86

  Dimensionality = 3               :  Bulk

  Cartesian lattice vectors (Angstroms) :

       10.280295    0.000000    0.000000
       -0.010581   10.313302    0.000000
       -0.032590   -0.029490   10.287008

  Cell parameters (Angstroms/Degrees):

  a =      10.2803    alpha =  90.1641
  b =      10.3133    beta  =  90.1815
  c =      10.2871    gamma =  90.0588

  Initial cell volume =        1090.667648 Angs**3

  Temperature of configuration =   0.00     K

  Pressure of configuration =         0.000 GPa

  Fractional coordinates of asymmetric unit :

   No.  Atomic       x           y          z         Charge      Occupancy
        Label      (Frac)      (Frac)     (Frac)        (e)         (Frac)
      1 Li    c    0.372539    0.372285    0.883106     1.00000    1.000000
      2 Li    c    0.505930 *  0.750545 *  0.251368 *   1.00000    1.000000
      3 Li    c    0.260625 *  0.739342 *  0.516742 *   1.00000    1.000000
      4 Li    c    0.750776 *  0.494940 *  0.250769 *   1.00000    1.000000
      5 Li    c    0.505863 *  0.015095 *  0.505814 *   1.00000    1.000000
      6 Li    c    0.772397 *  0.771912 *  0.005974 *   1.00000    1.000000
      7 Li    c    0.504776 *  0.472669 *  0.505248 *   1.00000    1.000000
      8 Li    c    0.494078 *  0.750429 *  0.749492 *   1.00000    1.000000
      9 Li    c    0.237884 *  0.760931 *  0.983331 *   1.00000    1.000000
     10 Li    c    0.260779 *  0.249980 *  0.494207 *   1.00000    1.000000
     11 Li    c    0.760893 *  0.259947 *  0.016514 *   1.00000    1.000000
     12 Li    c    0.505982 *  0.250101 *  0.261413 *   1.00000    1.000000
     13 Li    c    0.997524 *  0.755475 *  0.242802 *   1.00000    1.000000
     14 Li    c    0.749539 *  0.750475 *  0.504536 *   1.00000    1.000000
     15 Li    c    0.250446 *  0.983368 *  0.750992 *   1.00000    1.000000
     16 Li    c    0.758798 *  0.034722 *  0.250307 *   1.00000    1.000000
     17 Li    c    0.005589 *  0.516379 *  0.005540 *   1.00000    1.000000
     18 Sc    c    0.249666 *  0.494616 *  0.250710 *   3.00000    1.000000
     19 Sc    c    0.750136 *  0.505662 *  0.749865 *   3.00000    1.000000
     20 Sc    c    0.005281 *  0.249932 *  0.760920 *   3.00000    1.000000
     21 Sc    c    0.495027 *  0.005446 *  0.995040 *   3.00000    1.000000
     22 Sc    c    0.994797 *  0.994781 *  0.494560 *   3.00000    1.000000
     23 Cl    c    0.259539 *  0.262561 *  0.251792 *   1.48500    1.000000
     24 Cl    c    0.744173 *  0.510149 *  0.511651 *   1.48500    1.000000
     25 Cl    c    0.499371 *  0.999408 *  0.757095 *   1.48500    1.000000
     26 Cl    c    0.002459 *  0.746977 *  0.010801 *   1.48500    1.000000
     27 Cl    c    0.261338 *  0.996869 *  0.995090 *   1.48500    1.000000
     28 Cl    c    0.745713 *  0.741784 *  0.755407 *   1.48500    1.000000
     29 Cl    c    0.492476 *  0.241804 *  0.495580 *   1.48500    1.000000
     30 Cl    c    0.011375 *  0.506898 *  0.248431 *   1.48500    1.000000
     31 Cl    c    0.502476 *  0.766350 *  0.501221 *   1.48500    1.000000
     32 Cl    c    0.755584 *  0.505899 *  0.991791 *   1.48500    1.000000
     33 Cl    c    0.999039 *  0.010210 *  0.744903 *   1.48500    1.000000
     34 Cl    c    0.000607 *  0.262645 *  0.992180 *   1.48500    1.000000
     35 Cl    c    0.496003 *  0.504759 *  0.259065 *   1.48500    1.000000
     36 Cl    c    0.239349 *  0.997223 *  0.507149 *   1.48500    1.000000
     37 Cl    c    0.262071 *  0.752082 *  0.750094 *   1.48500    1.000000
     38 Cl    c    0.509171 *  0.000473 *  0.242610 *   1.48500    1.000000
     39 Cl    c    0.743464 *  0.266176 *  0.244981 *   1.48500    1.000000
     40 Cl    c    0.993918 *  0.493406 *  0.748846 *   1.48500    1.000000
     41 Cl    c    0.259490 *  0.498996 *  0.492075 *   1.48500    1.000000
     42 Cl    c    0.739329 *  0.007020 *  0.006885 *   1.48500    1.000000
     43 Cl    c    0.250690 *  0.514304 *  0.009449 *   1.48500    1.000000
     44 Cl    c    0.994265 *  0.999715 *  0.262402 *   1.48500    1.000000
     45 Cl    c    0.510055 *  0.500756 *  0.746492 *   1.48500    1.000000
     46 Cl    c    0.756382 *  0.993684 *  0.496818 *   1.48500    1.000000
     47 Cl    c    0.004834 *  0.239508 *  0.514741 *   1.48500    1.000000
     48 Cl    c    0.506158 *  0.763849 *  0.003670 *   1.48500    1.000000
     49 Cl    c    0.509439 *  0.244668 *  0.008775 *   1.48500    1.000000
     50 Cl    c    0.001008 *  0.759481 *  0.499958 *   1.48500    1.000000
     51 Cl    c    0.760412 *  0.262948 *  0.756628 *   1.48500    1.000000
     52 Cl    c    0.257200 *  0.738445 *  0.257330 *   1.48500    1.000000
     53 Cl    c    0.749812 *  0.736843 *  0.251247 *   1.48500    1.000000
     54 Cl    c    0.243473 *  0.245076 *  0.744592 *   1.48500    1.000000
     55 Cl    s    0.259539 *  0.262561 *  0.251792 *  -2.48500    1.000000
     56 Cl    s    0.744173 *  0.510149 *  0.511651 *  -2.48500    1.000000
     57 Cl    s    0.499371 *  0.999408 *  0.757095 *  -2.48500    1.000000
     58 Cl    s    0.002459 *  0.746977 *  0.010801 *  -2.48500    1.000000
     59 Cl    s    0.261338 *  0.996869 *  0.995090 *  -2.48500    1.000000
     60 Cl    s    0.745713 *  0.741784 *  0.755407 *  -2.48500    1.000000
     61 Cl    s    0.492476 *  0.241804 *  0.495580 *  -2.48500    1.000000
     62 Cl    s    0.011375 *  0.506898 *  0.248431 *  -2.48500    1.000000
     63 Cl    s    0.502476 *  0.766350 *  0.501221 *  -2.48500    1.000000
     64 Cl    s    0.755584 *  0.505899 *  0.991791 *  -2.48500    1.000000
     65 Cl    s    0.999039 *  0.010210 *  0.744903 *  -2.48500    1.000000
     66 Cl    s    0.000607 *  0.262645 *  0.992180 *  -2.48500    1.000000
     67 Cl    s    0.496003 *  0.504759 *  0.259065 *  -2.48500    1.000000
     68 Cl    s    0.239349 *  0.997223 *  0.507149 *  -2.48500    1.000000
     69 Cl    s    0.262071 *  0.752082 *  0.750094 *  -2.48500    1.000000
     70 Cl    s    0.509171 *  0.000473 *  0.242610 *  -2.48500    1.000000
     71 Cl    s    0.743464 *  0.266176 *  0.244981 *  -2.48500    1.000000
     72 Cl    s    0.993918 *  0.493406 *  0.748846 *  -2.48500    1.000000
     73 Cl    s    0.259490 *  0.498996 *  0.492075 *  -2.48500    1.000000
     74 Cl    s    0.739329 *  0.007020 *  0.006885 *  -2.48500    1.000000
     75 Cl    s    0.250690 *  0.514304 *  0.009449 *  -2.48500    1.000000
     76 Cl    s    0.994265 *  0.999715 *  0.262402 *  -2.48500    1.000000
     77 Cl    s    0.510055 *  0.500756 *  0.746492 *  -2.48500    1.000000
     78 Cl    s    0.756382 *  0.993684 *  0.496818 *  -2.48500    1.000000
     79 Cl    s    0.004834 *  0.239508 *  0.514741 *  -2.48500    1.000000
     80 Cl    s    0.506158 *  0.763849 *  0.003670 *  -2.48500    1.000000
     81 Cl    s    0.509439 *  0.244668 *  0.008775 *  -2.48500    1.000000
     82 Cl    s    0.001008 *  0.759481 *  0.499958 *  -2.48500    1.000000
     83 Cl    s    0.760412 *  0.262948 *  0.756628 *  -2.48500    1.000000
     84 Cl    s    0.257200 *  0.738445 *  0.257330 *  -2.48500    1.000000
     85 Cl    s    0.749812 *  0.736843 *  0.251247 *  -2.48500    1.000000
     86 Cl    s    0.243473 *  0.245076 *  0.744592 *  -2.48500    1.000000

*  General input information                                                   *

  Species output for all configurations :

  Species    Type    Atomic    Atomic    Charge       Radii (Angs)     Library
                     Number     Mass       (e)     Cova   Ionic  VDW   Symbol
    Li       Core        3       6.94   1.000000   0.680  0.000  1.800
    Sc       Core       21      44.96   3.000000   1.440  0.000  2.150
    Cl       Core       17      35.45   1.485000   0.990  0.000  1.650
    Cl       Shell      17       0.00  -2.485000   0.990  0.000  1.650

  Lattice summation method               =    Ewald          (3-D)
                                         =    Parry          (2-D)
                                         =    Saunders et al (1-D)
  Accuracy factor for lattice sums       =   12.000

  Analytic derivatives to be used

  Time limit = Infinity

  Maximum range for interatomic potentials =    100000.000000 Angstroms

  General interatomic potentials :

Atom  Types   Potential      Parameter       Value         Units   Cutoffs(Ang)
  1     2                                                            Min /  Max
Cl   c Cl   s Spring (c-s)  Spring k 2       29.380000    eV*Ang^-2 0.000  0.800
                            Spring k 4       0.0000000    eV*Ang^-4
Li   c Li   c Buckingham    Buckingham A     360.53000    eV        0.000 12.000
                            Buckingham rho  0.16100000    Ang
                            Buckingham C     0.0000000    eV*Ang^6
Li   c Cl   s Buckingham    Buckingham A     421.04000    eV        0.000 12.000
                            Buckingham rho  0.33400000    Ang
                            Buckingham C     0.0000000    eV*Ang^6
Sc   c Cl   s Buckingham    Buckingham A     12131.350    eV        0.000 12.000
                            Buckingham rho  0.25070000    Ang
                            Buckingham C     0.0000000    eV*Ang^6
Cl   s Cl   s Buckingham    Buckingham A     1227.2000    eV        0.000 12.000
                            Buckingham rho  0.32100000    Ang
                            Buckingham C     14.530000    eV*Ang^6

*  Output for configuration   1                                                *

  Components of energy :

  Interatomic potentials     =          41.82545933 eV
  Monopole - monopole (real) =        -222.89643199 eV
  Monopole - monopole (recip)=        -189.39504440 eV
  Monopole - monopole (total)=        -412.29147639 eV
  Total lattice energy       =        -370.46601706 eV
  Total lattice energy       =          -35744.3076 kJ/(mole unit cells)

  Number of variables =      261

  Maximum number of calculations  =          1000
  Maximum Hessian update interval =            10
  Maximum step size               =   1.000000000
  Maximum parameter tolerance     =   0.000010000
  Maximum function  tolerance     =   0.000010000
  Maximum gradient  tolerance     =   0.001000000
  Maximum gradient  component     =   0.010000000

  Symmetry not applied to optimisation

  Cell parameters to be optimised using strains

  Newton-Raphson optimiser to be used

  BFGS hessian update to be used

  Lower half triangular hessian to be used

  Start of bulk optimisation :

  ** Hessian calculated **
  ** Hessian calculated **
  ** Hessian calculated **
  ** Hessian calculated **
  ** Hessian calculated **
  ** Hessian calculated **
  ** Hessian calculated **
  ** Hessian calculated **
  ** Hessian calculated **
  ** Hessian calculated **
  ** Hessian calculated **
  ** Hessian calculated **
  ** Hessian calculated **
  ** Hessian calculated **
  ** Hessian calculated **
[...]
     16 y          0.034722      0.164739     0.130017    Fractional 374.46
     16 z          0.250307      0.127274     0.123034    Fractional  49.15
     17 x          0.005589      0.131686     0.126097    Fractional2256.20
     17 y          0.516379      0.635819     0.119440    Fractional  23.13
     17 z          0.005540      0.892748     0.112793    Fractional  11.22
     18 x          0.249666      0.375202     0.125536    Fractional  50.28
     18 y          0.494616      0.623344     0.128728    Fractional  26.03
     18 z          0.250710      0.139086     0.111624    Fractional  44.52
     19 x          0.750136      0.871360     0.121223    Fractional  16.16
     19 y          0.505662      0.623962     0.118301    Fractional  23.40
     19 z          0.749865      0.626891     0.122974    Fractional  16.40
     20 x          0.005281      0.116564     0.111283    Fractional2107.12
     20 y          0.249932      0.372285     0.122353    Fractional  48.95
     20 z          0.760920      0.627132     0.133788    Fractional  17.58
     21 x          0.495027      0.628518     0.133491    Fractional  26.97
     21 y          0.005446      0.121225     0.115780    Fractional2126.12
     21 z          0.995040      0.885770     0.109270    Fractional  10.98
     22 x          0.994797      0.116323     0.121526    Fractional  12.22
     22 y          0.994781      0.120607     0.125825    Fractional  12.65
     22 z          0.494560      0.381927     0.112632    Fractional  22.77
     23 x          0.259539      0.378228     0.118689    Fractional  45.73
     23 y          0.262561      0.386756     0.124195    Fractional  47.30
     23 z          0.251792      0.127026     0.124767    Fractional  49.55
     24 x          0.744173      0.857174     0.113002    Fractional  15.18
     24 y          0.510149      0.628575     0.118426    Fractional  23.21
     24 z          0.511651      0.393320     0.118331    Fractional  23.13
     25 x          0.499371      0.625180     0.125809    Fractional  25.19
     25 y          0.999408      0.114466     0.115057    Fractional  11.51
     25 z          0.757095      0.651355     0.105740    Fractional  13.97
     26 x          0.002459      0.123321     0.120862    Fractional4914.57
     26 y          0.746977      0.864773     0.117795    Fractional  15.77
     26 z          0.010801      0.899417     0.111384    Fractional1031.24
     27 x          0.261338      0.391466     0.130129    Fractional  49.79
     27 y          0.996869      0.119590     0.122721    Fractional  12.31
     27 z          0.995090      0.882820     0.112270    Fractional  11.28
     28 x          0.745713      0.872317     0.126604    Fractional  16.98
     28 y          0.741784      0.860200     0.118416    Fractional  15.96
     28 z          0.755407      0.633175     0.122232    Fractional  16.18
     29 x          0.492476      0.603714     0.111238    Fractional  22.59
     29 y          0.241804      0.348922     0.107117    Fractional  44.30
     29 z          0.495580      0.368842     0.126739    Fractional  25.57
     30 x          0.011375      0.140788     0.129413    Fractional1137.73
     30 y          0.506898      0.630104     0.123205    Fractional  24.31
     30 z          0.248431      0.135748     0.112683    Fractional  45.36
     31 x          0.502476      0.627316     0.124840    Fractional  24.84
     31 y          0.766350      0.908690     0.142340    Fractional  18.57
     31 z          0.501221      0.384558     0.116664    Fractional  23.28
     32 x          0.755584      0.887743     0.132158    Fractional  17.49
     32 y          0.505899      0.624612     0.118713    Fractional  23.47
     32 z          0.991791      0.862252     0.129539    Fractional  13.06
     33 x          0.999039      0.101628     0.102590    Fractional  10.27
     33 y          0.010210      0.132942     0.122732    Fractional1202.10
     33 z          0.744903      0.621511     0.123392    Fractional  16.56
     34 x          0.000607      0.121930     0.121323    Fractional*******
     34 y          0.262645      0.379449     0.116804    Fractional  44.47
     34 z          0.992180      0.862247     0.129933    Fractional  13.10
     35 x          0.496003      0.611817     0.115813    Fractional  23.35
     35 y          0.504759      0.624166     0.119407    Fractional  23.66
     35 z          0.259065      0.152795     0.106270    Fractional  41.02
     36 x          0.239349      0.351684     0.112335    Fractional  46.93
     36 y          0.997223      0.119957     0.122734    Fractional  12.31
     36 z          0.507149      0.398310     0.108839    Fractional  21.46
     37 x          0.262071      0.388850     0.126778    Fractional  48.38
     37 y          0.752082      0.879797     0.127714    Fractional  16.98
     37 z          0.750094      0.633889     0.116205    Fractional  15.49
     38 x          0.509171      0.642227     0.133056    Fractional  26.13
     38 y          0.000473      0.120403     0.119929    Fractional*******
     38 z          0.242610      0.122384     0.120225    Fractional  49.56
     39 x          0.743464      0.858274     0.114810    Fractional  15.44
     39 y          0.266176      0.395648     0.129471    Fractional  48.64
     39 z          0.244981      0.114282     0.130699    Fractional  53.35
     40 x          0.993918      0.110944     0.117026    Fractional  11.77
     40 y          0.493406      0.611628     0.118221    Fractional  23.96
     40 z          0.748846      0.612196     0.136650    Fractional  18.25
     41 x          0.259490      0.376144     0.116653    Fractional  44.95
     41 y          0.498996      0.614355     0.115360    Fractional  23.12
     41 z          0.492075      0.376192     0.115883    Fractional  23.55
     42 x          0.739329      0.865624     0.126295    Fractional  17.08
     42 y          0.007020      0.130214     0.123194    Fractional1754.81
     42 z          0.006885      0.886711     0.120174    Fractional  11.94
     43 x          0.250690      0.372252     0.121562    Fractional  48.49
     43 y          0.514304      0.624980     0.110675    Fractional  21.52
     43 z          0.009449      0.902034     0.107415    Fractional  10.64
     44 x          0.994265      0.119698     0.125432    Fractional  12.62
     44 y          0.999715      0.124884     0.125169    Fractional  12.52
     44 z          0.262402      0.146790     0.115612    Fractional  44.06
     45 x          0.510055      0.636222     0.126166    Fractional  24.74
     45 y          0.500756      0.619685     0.118929    Fractional  23.75
     45 z          0.746492      0.630265     0.116227    Fractional  15.57
     46 x          0.756382      0.882752     0.126370    Fractional  16.71
     46 y          0.993684      0.115994     0.122310    Fractional  12.31
     46 z          0.496818      0.367742     0.129076    Fractional  25.98
     47 x          0.004834      0.117482     0.112648    Fractional2330.46
     47 y          0.239508      0.361915     0.122407    Fractional  51.11
     47 z          0.514741      0.387394     0.127347    Fractional  24.74
     48 x          0.506158      0.636811     0.130652    Fractional  25.81
     48 y          0.763849      0.884055     0.120205    Fractional  15.74
     48 z          0.003670      0.890925     0.112745    Fractional  11.23
     49 x          0.509439      0.616458     0.107019    Fractional  21.01
     49 y          0.244668      0.357813     0.113145    Fractional  46.24
     49 z          0.008775      0.888796     0.119979    Fractional  11.89
     50 x          0.001008      0.122607     0.121599    Fractional*******
     50 y          0.759481      0.884370     0.124889    Fractional  16.44
     50 z          0.499958      0.382885     0.117073    Fractional  23.42
     51 x          0.760412      0.876826     0.116414    Fractional  15.31
     51 y          0.262948      0.382654     0.119706    Fractional  45.52
     51 z          0.756628      0.628049     0.128578    Fractional  16.99
     52 x          0.257200      0.380357     0.123157    Fractional  47.88
     52 y          0.738445      0.860514     0.122070    Fractional  16.53
     52 z          0.257330      0.147378     0.109951    Fractional  42.73
     53 x          0.749812      0.873990     0.124178    Fractional  16.56
     53 y          0.736843      0.835879     0.099036    Fractional  13.44
     53 z          0.251247      0.137884     0.113363    Fractional  45.12
     54 x          0.243473      0.351679     0.108206    Fractional  44.44
     54 y          0.245076      0.365120     0.120044    Fractional  48.98
     54 z          0.744592      0.632497     0.112094    Fractional  15.05
     55 x          0.259539      0.382416     0.122877    Fractional  47.34
     55 y          0.262561      0.404350     0.141789    Fractional  54.00
     55 z          0.251792      0.127436     0.124356    Fractional  49.39
     56 x          0.744173      0.854741     0.110568    Fractional  14.86
     56 y          0.510149      0.631831     0.121683    Fractional  23.85
     56 z          0.511651      0.406340     0.105311    Fractional  20.58
     57 x          0.499371      0.620664     0.121292    Fractional  24.29
     57 y          0.999408      0.111070     0.111662    Fractional  11.17
     57 z          0.757095      0.663816     0.093280    Fractional  12.32
     58 x          0.002459      0.123192     0.120733    Fractional4909.31
     58 y          0.746977      0.859249     0.112272    Fractional  15.03
     58 z          0.010801      0.903944     0.106857    Fractional 989.34
     59 x          0.261338      0.407882     0.146544    Fractional  56.07
     59 y          0.996869      0.119474     0.122605    Fractional  12.30
     59 z          0.995090      0.876800     0.118290    Fractional  11.89
     60 x          0.745713      0.868546     0.122833    Fractional  16.47
     60 y          0.741784      0.841948     0.100164    Fractional  13.50
     60 z          0.755407      0.633861     0.121545    Fractional  16.09
     61 x          0.492476      0.598264     0.105788    Fractional  21.48
     61 y          0.241804      0.347793     0.105989    Fractional  43.83
     61 z          0.495580      0.365491     0.130089    Fractional  26.25
     62 x          0.011375      0.153248     0.141873    Fractional1247.27
     62 y          0.506898      0.633499     0.126601    Fractional  24.98
     62 z          0.248431      0.131231     0.117199    Fractional  47.18
     63 x          0.502476      0.629875     0.127399    Fractional  25.35
     63 y          0.766350      0.911959     0.145608    Fractional  19.00
     63 z          0.501221      0.384135     0.117087    Fractional  23.36
     64 x          0.755584      0.891447     0.135862    Fractional  17.98
     64 y          0.505899      0.623081     0.117182    Fractional  23.16
     64 z          0.991791      0.847180     0.144611    Fractional  14.58
     65 x          0.999039      0.106630     0.107591    Fractional  10.77
     65 y          0.010210      0.150076     0.139866    Fractional1369.93
     65 z          0.744903      0.605063     0.139840    Fractional  18.77
     66 x          0.000607      0.122274     0.121667    Fractional*******
     66 y          0.262645      0.382879     0.120234    Fractional  45.78
     66 z          0.992180      0.843925     0.148254    Fractional  14.94
     67 x          0.496003      0.597390     0.101386    Fractional  20.44
     67 y          0.504759      0.623905     0.119146    Fractional  23.60
     67 z          0.259065      0.155815     0.103250    Fractional  39.85
     68 x          0.239349      0.336612     0.097263    Fractional  40.64
     68 y          0.997223      0.121489     0.124266    Fractional  12.46
     68 z          0.507149      0.402014     0.105135    Fractional  20.73
     69 x          0.262071      0.393376     0.131304    Fractional  50.10
     69 y          0.752082      0.885320     0.133238    Fractional  17.72
     69 z          0.750094      0.633759     0.116334    Fractional  15.51
     70 x          0.509171      0.645247     0.136076    Fractional  26.73
     70 y          0.000473      0.120664     0.120190    Fractional*******
     70 z          0.242610      0.107957     0.134652    Fractional  55.50
     71 x          0.743464      0.854923     0.111460    Fractional  14.99
     71 y          0.266176      0.396776     0.130600    Fractional  49.07
     71 z          0.244981      0.108832     0.136149    Fractional  55.58
     72 x          0.993918      0.094496     0.100578    Fractional  10.12
     72 y          0.493406      0.594493     0.101087    Fractional  20.49
     72 z          0.748846      0.617197     0.131649    Fractional  17.58
     73 x          0.259490      0.381323     0.121833    Fractional  46.95
     73 y          0.498996      0.614847     0.115852    Fractional  23.22
     73 z          0.492075      0.359787     0.132288    Fractional  26.88
     74 x          0.739329      0.849219     0.109890    Fractional  14.86
     74 y          0.007020      0.129722     0.122702    Fractional1747.80
     74 z          0.006885      0.891891     0.114995    Fractional  11.42
     75 x          0.250690      0.366232     0.115542    Fractional  46.09
     75 y          0.514304      0.625095     0.110791    Fractional  21.54
     75 z          0.009449      0.918450     0.091000    Fractional   9.01
     76 x          0.994265      0.112370     0.118105    Fractional  11.88
     76 y          0.999715      0.120434     0.120718    Fractional  12.08
     76 z          0.262402      0.165094     0.097308    Fractional  37.08
     77 x          0.510055      0.654526     0.144471    Fractional  28.32
     77 y          0.500756      0.624136     0.123379    Fractional  24.64
     77 z          0.746492      0.622938     0.123554    Fractional  16.55
     78 x          0.756382      0.895773     0.139390    Fractional  18.43
     78 y          0.993684      0.112738     0.119053    Fractional  11.98
     78 z          0.496818      0.365309     0.131509    Fractional  26.47
     79 x          0.004834      0.121237     0.116403    Fractional2408.15
     79 y          0.239508      0.345381     0.105872    Fractional  44.20
     79 z          0.514741      0.404809     0.109933    Fractional  21.36
     80 x          0.506158      0.637443     0.131284    Fractional  25.94
     80 y          0.763849      0.901763     0.137914    Fractional  18.06
     80 z          0.003670      0.890704     0.112966    Fractional  11.26
     81 x          0.509439      0.616869     0.107430    Fractional  21.09
     81 y          0.244668      0.340219     0.095551    Fractional  39.05
     81 z          0.008775      0.892984     0.115791    Fractional  11.48
     82 x          0.001008      0.123294     0.122286    Fractional*******
     82 y          0.759481      0.902621     0.143140    Fractional  18.85
     82 z          0.499958      0.379113     0.120845    Fractional  24.17
     83 x          0.760412      0.894241     0.133828    Fractional  17.60
     83 y          0.262948      0.399188     0.136240    Fractional  51.81
     83 z          0.756628      0.631804     0.124823    Fractional  16.50
     84 x          0.257200      0.380136     0.122937    Fractional  47.80
     84 y          0.738445      0.842806     0.104361    Fractional  14.13
     84 z          0.257330      0.148010     0.109319    Fractional  42.48
     85 x          0.749812      0.873567     0.123755    Fractional  16.50
     85 y          0.736843      0.832611     0.095768    Fractional  13.00
     85 z          0.251247      0.140442     0.110804    Fractional  44.10
     86 x          0.243473      0.333357     0.089884    Fractional  36.92
     86 y          0.245076      0.361690     0.116614    Fractional  47.58
     86 z          0.744592      0.632841     0.111751    Fractional  15.01

  Time to end of optimisation =      38.0011 seconds

  Timing analysis for GULP :

  Task / Subroutine                                          Time (Seconds)
  Calculation of reciprocal space energy and derivatives          2.2769
  Calculation of real space energy and derivatives               35.3167
  Calculation and manipulation of Hessian matrix                  0.0088
  Calculation of matrix inversion                                 0.2598
  Symmetry generation of equivalent positions                     0.0001
  Global summation overhead                                       0.0010

  Dump file written as halospinel.grs

  Job Finished at 13:58.02 26th July       2022