  Job Started  at 14:49.33  4th March      2022

  Number of CPUs =     1

  Total number of configurations input =      1

*  Input for Configuration =   1                                               *

  Formula = Li17Sc5Cl32

  Number of irreducible atoms/shells =      86

  Total number atoms/shells =      86

  Dimensionality = 3               :  Bulk

  Cartesian lattice vectors (Angstroms) :

       10.403700    0.000000    0.000000
        0.000000   10.403700    0.000000
        0.000000    0.000000   10.403700

  Cell parameters (Angstroms/Degrees):

  a =      10.4037    alpha =  90.0000
  b =      10.4037    beta  =  90.0000
  c =      10.4037    gamma =  90.0000

  Initial cell volume =        1126.065003 Angs**3

  Temperature of configuration =   0.00     K

  Pressure of configuration =         0.000 GPa

  Fractional coordinates of asymmetric unit :

   No.  Atomic       x           y          z         Charge      Occupancy
        Label      (Frac)      (Frac)     (Frac)        (e)         (Frac)
      1 Li    c    0.375000    0.375000    0.875000     1.00000    1.000000
      2 Li    c    0.250000 *  0.750000 *  0.500000 *   1.00000    1.000000
      3 Li    c    0.000000 *  0.750000 *  0.750000 *   1.00000    1.000000
      4 Li    c    0.750000 *  0.500000 *  0.250000 *   1.00000    1.000000
      5 Li    c    0.500000 *  0.000000 *  0.500000 *   1.00000    1.000000
      6 Li    c    0.125000 *  0.875000 *  0.125000 *   1.00000    1.000000
      7 Li    c    0.500000 *  0.500000 *  0.500000 *   1.00000    1.000000
      8 Li    c    0.500000 *  0.750000 *  0.750000 *   1.00000    1.000000
      9 Li    c    0.250000 *  0.750000 *  0.000000 *   1.00000    1.000000
     10 Li    c    0.250000 *  0.250000 *  0.500000 *   1.00000    1.000000
     11 Li    c    0.750000 *  0.250000 *  0.000000 *   1.00000    1.000000
     12 Li    c    0.500000 *  0.250000 *  0.250000 *   1.00000    1.000000
     13 Li    c    0.000000 *  0.750000 *  0.250000 *   1.00000    1.000000
     14 Li    c    0.750000 *  0.750000 *  0.500000 *   1.00000    1.000000
     15 Li    c    0.250000 *  0.000000 *  0.750000 *   1.00000    1.000000
     16 Li    c    0.000000 *  0.500000 *  0.000000 *   1.00000    1.000000
     17 Li    c    0.000000 *  0.000000 *  0.500000 *   1.00000    1.000000
     18 Sc    c    0.250000 *  0.500000 *  0.250000 *   3.00000    1.000000
     19 Sc    c    0.750000 *  0.500000 *  0.750000 *   3.00000    1.000000
     20 Sc    c    0.000000 *  0.250000 *  0.750000 *   3.00000    1.000000
     21 Sc    c    0.500000 *  0.000000 *  0.000000 *   3.00000    1.000000
     22 Sc    c    0.750000 *  0.000000 *  0.250000 *   3.00000    1.000000
     23 Cl    c    0.250000 *  0.250000 *  0.250000 *   1.48500    1.000000
     24 Cl    c    0.750000 *  0.500000 *  0.500000 *   1.48500    1.000000
     25 Cl    c    0.500000 *  0.000000 *  0.750000 *   1.48500    1.000000
     26 Cl    c    0.000000 *  0.750000 *  0.000000 *   1.48500    1.000000
     27 Cl    c    0.250000 *  0.000000 *  0.000000 *   1.48500    1.000000
     28 Cl    c    0.750000 *  0.750000 *  0.750000 *   1.48500    1.000000
     29 Cl    c    0.500000 *  0.250000 *  0.500000 *   1.48500    1.000000
     30 Cl    c    0.000000 *  0.500000 *  0.250000 *   1.48500    1.000000
     31 Cl    c    0.500000 *  0.750000 *  0.500000 *   1.48500    1.000000
     32 Cl    c    0.750000 *  0.500000 *  0.000000 *   1.48500    1.000000
     33 Cl    c    0.000000 *  0.000000 *  0.750000 *   1.48500    1.000000
     34 Cl    c    0.000000 *  0.250000 *  0.000000 *   1.48500    1.000000
     35 Cl    c    0.500000 *  0.500000 *  0.250000 *   1.48500    1.000000
     36 Cl    c    0.250000 *  0.000000 *  0.500000 *   1.48500    1.000000
     37 Cl    c    0.250000 *  0.750000 *  0.750000 *   1.48500    1.000000
     38 Cl    c    0.500000 *  0.000000 *  0.250000 *   1.48500    1.000000
     39 Cl    c    0.750000 *  0.250000 *  0.250000 *   1.48500    1.000000
     40 Cl    c    0.000000 *  0.500000 *  0.750000 *   1.48500    1.000000
     41 Cl    c    0.250000 *  0.500000 *  0.500000 *   1.48500    1.000000
     42 Cl    c    0.750000 *  0.000000 *  0.000000 *   1.48500    1.000000
     43 Cl    c    0.250000 *  0.500000 *  0.000000 *   1.48500    1.000000
     44 Cl    c    0.000000 *  0.000000 *  0.250000 *   1.48500    1.000000
     45 Cl    c    0.500000 *  0.500000 *  0.750000 *   1.48500    1.000000
     46 Cl    c    0.750000 *  0.000000 *  0.500000 *   1.48500    1.000000
     47 Cl    c    0.000000 *  0.250000 *  0.500000 *   1.48500    1.000000
     48 Cl    c    0.500000 *  0.750000 *  0.000000 *   1.48500    1.000000
     49 Cl    c    0.500000 *  0.250000 *  0.000000 *   1.48500    1.000000
     50 Cl    c    0.000000 *  0.750000 *  0.500000 *   1.48500    1.000000
     51 Cl    c    0.750000 *  0.250000 *  0.750000 *   1.48500    1.000000
     52 Cl    c    0.250000 *  0.750000 *  0.250000 *   1.48500    1.000000
     53 Cl    c    0.750000 *  0.750000 *  0.250000 *   1.48500    1.000000
     54 Cl    c    0.250000 *  0.250000 *  0.750000 *   1.48500    1.000000
     55 Cl    s    0.250000 *  0.250000 *  0.250000 *  -2.48500    1.000000
     56 Cl    s    0.750000 *  0.500000 *  0.500000 *  -2.48500    1.000000
     57 Cl    s    0.500000 *  0.000000 *  0.750000 *  -2.48500    1.000000
     58 Cl    s    0.000000 *  0.750000 *  0.000000 *  -2.48500    1.000000
     59 Cl    s    0.250000 *  0.000000 *  0.000000 *  -2.48500    1.000000
     60 Cl    s    0.750000 *  0.750000 *  0.750000 *  -2.48500    1.000000
     61 Cl    s    0.500000 *  0.250000 *  0.500000 *  -2.48500    1.000000
     62 Cl    s    0.000000 *  0.500000 *  0.250000 *  -2.48500    1.000000
     63 Cl    s    0.500000 *  0.750000 *  0.500000 *  -2.48500    1.000000
     64 Cl    s    0.750000 *  0.500000 *  0.000000 *  -2.48500    1.000000
     65 Cl    s    0.000000 *  0.000000 *  0.750000 *  -2.48500    1.000000
     66 Cl    s    0.000000 *  0.250000 *  0.000000 *  -2.48500    1.000000
     67 Cl    s    0.500000 *  0.500000 *  0.250000 *  -2.48500    1.000000
     68 Cl    s    0.250000 *  0.000000 *  0.500000 *  -2.48500    1.000000
     69 Cl    s    0.250000 *  0.750000 *  0.750000 *  -2.48500    1.000000
     70 Cl    s    0.500000 *  0.000000 *  0.250000 *  -2.48500    1.000000
     71 Cl    s    0.750000 *  0.250000 *  0.250000 *  -2.48500    1.000000
     72 Cl    s    0.000000 *  0.500000 *  0.750000 *  -2.48500    1.000000
     73 Cl    s    0.250000 *  0.500000 *  0.500000 *  -2.48500    1.000000
     74 Cl    s    0.750000 *  0.000000 *  0.000000 *  -2.48500    1.000000
     75 Cl    s    0.250000 *  0.500000 *  0.000000 *  -2.48500    1.000000
     76 Cl    s    0.000000 *  0.000000 *  0.250000 *  -2.48500    1.000000
     77 Cl    s    0.500000 *  0.500000 *  0.750000 *  -2.48500    1.000000
     78 Cl    s    0.750000 *  0.000000 *  0.500000 *  -2.48500    1.000000
     79 Cl    s    0.000000 *  0.250000 *  0.500000 *  -2.48500    1.000000
     80 Cl    s    0.500000 *  0.750000 *  0.000000 *  -2.48500    1.000000
     81 Cl    s    0.500000 *  0.250000 *  0.000000 *  -2.48500    1.000000
     82 Cl    s    0.000000 *  0.750000 *  0.500000 *  -2.48500    1.000000
     83 Cl    s    0.750000 *  0.250000 *  0.750000 *  -2.48500    1.000000
     84 Cl    s    0.250000 *  0.750000 *  0.250000 *  -2.48500    1.000000
     85 Cl    s    0.750000 *  0.750000 *  0.250000 *  -2.48500    1.000000
     86 Cl    s    0.250000 *  0.250000 *  0.750000 *  -2.48500    1.000000

*  General input information                                                   *

  Species output for all configurations :

  Species    Type    Atomic    Atomic    Charge       Radii (Angs)     Library
                     Number     Mass       (e)     Cova   Ionic  VDW   Symbol
    Li       Core        3       6.94   1.000000   0.680  0.000  1.800
    Sc       Core       21      44.96   3.000000   1.440  0.000  2.150
    Cl       Core       17      35.45   1.485000   0.990  0.000  1.650
    Cl       Shell      17       0.00  -2.485000   0.990  0.000  1.650

  Lattice summation method               =    Ewald          (3-D)
                                         =    Parry          (2-D)
                                         =    Saunders et al (1-D)
  Accuracy factor for lattice sums       =   12.000

  Analytic derivatives to be used

  Time limit = Infinity

  Maximum range for interatomic potentials =    100000.000000 Angstroms

  General interatomic potentials :

Atom  Types   Potential      Parameter       Value         Units   Cutoffs(Ang)
  1     2                                                            Min /  Max
Cl   c Cl   s Spring (c-s)  Spring k 2       36.070000    eV*Ang^-2 0.000  0.800
                            Spring k 4       0.0000000    eV*Ang^-4
Li   c Li   c Buckingham    Buckingham A     360.53000    eV        0.000 12.000
                            Buckingham rho  0.16100000    Ang
                            Buckingham C     0.0000000    eV*Ang^6
Li   c Cl   s Buckingham    Buckingham A     421.04000    eV        0.000 12.000
                            Buckingham rho  0.33400000    Ang
                            Buckingham C     0.0000000    eV*Ang^6
Sc   c Cl   s Buckingham    Buckingham A     2456.2200    eV        0.000 12.000
                            Buckingham rho  0.31470000    Ang
                            Buckingham C     0.0000000    eV*Ang^6
Cl   s Cl   s Buckingham    Buckingham A     1227.2000    eV        0.000 12.000
                            Buckingham rho  0.32100000    Ang
                            Buckingham C     14.530000    eV*Ang^6

*  Output for configuration   1                                                *

  Components of energy :

  Interatomic potentials     =          39.98465897 eV
  Monopole - monopole (real) =        -203.26936708 eV
  Monopole - monopole (recip)=        -187.00458965 eV
  Monopole - monopole (total)=        -390.27395673 eV
  Total lattice energy       =        -350.28929776 eV
  Total lattice energy       =          -33797.5626 kJ/(mole unit cells)

  Number of variables =      261

  Maximum number of calculations  =          1000
  Maximum Hessian update interval =            10
  Maximum step size               =   1.000000000
  Maximum parameter tolerance     =   0.000010000
  Maximum function  tolerance     =   0.000010000
  Maximum gradient  tolerance     =   0.001000000
  Maximum gradient  component     =   0.010000000

  Symmetry not applied to optimisation

  Cell parameters to be optimised using strains

  Newton-Raphson optimiser to be used

  BFGS hessian update to be used

  Lower half triangular hessian to be used

  Start of bulk optimisation :

  ** Hessian calculated **
  ** Hessian calculated **
  ** Hessian calculated **
  ** Hessian calculated **
  ** Hessian calculated **
  ** Hessian calculated **
  ** Hessian calculated **
  ** Hessian calculated **
  ** Hessian calculated **
  ** Hessian calculated **
  ** Hessian calculated **

  **** Too many failed attempts to optimise ****

  Final energy =    -381.78638923 eV
[...]
     16 y          0.500000      0.526585     0.026585    Fractional   5.32
     16 z          0.000000      0.003322     0.003322    Fractional   0.00
     17 x          0.000000      0.018762     0.018762    Fractional   0.00
     17 y          0.000000      0.007160     0.007160    Fractional   0.00
     17 z          0.500000      0.489599     0.010401    Fractional   2.08
     18 x          0.250000      0.249076     0.000924    Fractional   0.37
     18 y          0.500000      0.508824     0.008824    Fractional   1.76
     18 z          0.250000      0.235169     0.014831    Fractional   5.93
     19 x          0.750000      0.739749     0.010251    Fractional   1.37
     19 y          0.500000      0.508286     0.008286    Fractional   1.66
     19 z          0.750000      0.734994     0.015006    Fractional   2.00
     20 x          0.000000      0.000557     0.000557    Fractional   0.00
     20 y          0.250000      0.255519     0.005519    Fractional   2.21
     20 z          0.750000      0.736230     0.013770    Fractional   1.84
     21 x          0.500000      0.491456     0.008544    Fractional   1.71
     21 y          0.000000      0.009274     0.009274    Fractional   0.00
     21 z          0.000000      0.986675     0.986675    Fractional   0.00
     22 x          0.750000      0.752472     0.002472    Fractional   0.33
     22 y          0.000000      0.003643     0.003643    Fractional   0.00
     22 z          0.250000      0.234807     0.015193    Fractional   6.08
     23 x          0.250000      0.258897     0.008897    Fractional   3.56
     23 y          0.250000      0.276468     0.026468    Fractional  10.59
     23 z          0.250000      0.234843     0.015157    Fractional   6.06
     24 x          0.750000      0.729307     0.020693    Fractional   2.76
     24 y          0.500000      0.517296     0.017296    Fractional   3.46
     24 z          0.500000      0.507519     0.007519    Fractional   1.50
     25 x          0.500000      0.490332     0.009668    Fractional   1.93
     25 y          0.000000      0.004014     0.004014    Fractional   0.00
     25 z          0.750000      0.758327     0.008327    Fractional   1.11
     26 x          0.000000      0.004856     0.004856    Fractional   0.00
     26 y          0.750000      0.742001     0.007999    Fractional   1.07
     26 z          0.000000      0.990726     0.990726    Fractional   0.00
     27 x          0.250000      0.256842     0.006842    Fractional   2.74
     27 y          0.000000      0.012022     0.012022    Fractional   0.00
     27 z          0.000000      0.993816     0.993816    Fractional   0.00
     28 x          0.750000      0.760678     0.010678    Fractional   1.42
     28 y          0.750000      0.737317     0.012683    Fractional   1.69
     28 z          0.750000      0.741917     0.008083    Fractional   1.08
     29 x          0.500000      0.480403     0.019597    Fractional   3.92
     29 y          0.250000      0.258374     0.008374    Fractional   3.35
     29 z          0.500000      0.474111     0.025889    Fractional   5.18
     30 x          0.000000      0.013540     0.013540    Fractional   0.00
     30 y          0.500000      0.507938     0.007938    Fractional   1.59
     30 z          0.250000      0.226214     0.023786    Fractional   9.51
     31 x          0.500000      0.492383     0.007617    Fractional   1.52
     31 y          0.750000      0.757227     0.007227    Fractional   0.96
     31 z          0.500000      0.519591     0.019591    Fractional   3.92
     32 x          0.750000      0.742138     0.007862    Fractional   1.05
     32 y          0.500000      0.499816     0.000184    Fractional   0.04
     32 z          0.000000      0.968823     0.968823    Fractional   0.00
     33 x          0.000000      0.998892     0.998892    Fractional   0.00
     33 y          0.000000      0.026473     0.026473    Fractional   0.00
     33 z          0.750000      0.742844     0.007156    Fractional   0.95
     34 x          0.000000      0.986051     0.986051    Fractional   0.00
     34 y          0.250000      0.273895     0.023895    Fractional   9.56
     34 z          0.000000      0.968262     0.968262    Fractional   0.00
     35 x          0.500000      0.489643     0.010357    Fractional   2.07
     35 y          0.500000      0.504056     0.004056    Fractional   0.81
     35 z          0.250000      0.231969     0.018031    Fractional   7.21
     36 x          0.250000      0.261536     0.011536    Fractional   4.61
     36 y          0.000000      0.010040     0.010040    Fractional   0.00
     36 z          0.500000      0.509763     0.009763    Fractional   1.95
     37 x          0.250000      0.229606     0.020394    Fractional   8.16
     37 y          0.750000      0.779444     0.029444    Fractional   3.93
     37 z          0.750000      0.746819     0.003181    Fractional   0.42
     38 x          0.500000      0.507454     0.007454    Fractional   1.49
     38 y          0.000000      0.005225     0.005225    Fractional   0.00
     38 z          0.250000      0.223021     0.026979    Fractional  10.79
     39 x          0.750000      0.748630     0.001370    Fractional   0.18
     39 y          0.250000      0.233049     0.016951    Fractional   6.78
     39 z          0.250000      0.222266     0.027734    Fractional  11.09
     40 x          0.000000      0.983545     0.983545    Fractional   0.00
     40 y          0.500000      0.493505     0.006495    Fractional   1.30
     40 z          0.750000      0.740624     0.009376    Fractional   1.25
     41 x          0.250000      0.260304     0.010304    Fractional   4.12
     41 y          0.500000      0.511669     0.011669    Fractional   2.33
     41 z          0.500000      0.465484     0.034516    Fractional   6.90
     42 x          0.750000      0.733096     0.016904    Fractional   2.25
     42 y          0.000000      0.999831     0.999831    Fractional   0.00
     42 z          0.000000      0.997056     0.997056    Fractional   0.00
     43 x          0.250000      0.252646     0.002646    Fractional   1.06
     43 y          0.500000      0.515083     0.015083    Fractional   3.02
     43 z          0.000000      0.002093     0.002093    Fractional   0.00
     44 x          0.000000      0.987001     0.987001    Fractional   0.00
     44 y          0.000000      0.002029     0.002029    Fractional   0.00
     44 z          0.250000      0.236452     0.013548    Fractional   5.42
     45 x          0.500000      0.504226     0.004226    Fractional   0.85
     45 y          0.500000      0.512892     0.012892    Fractional   2.58
     45 z          0.750000      0.747058     0.002942    Fractional   0.39
     46 x          0.750000      0.728191     0.021809    Fractional   2.91
     46 y          0.000000      0.999262     0.999262    Fractional   0.00
     46 z          0.500000      0.462676     0.037324    Fractional   7.46
     47 x          0.000000      0.017308     0.017308    Fractional   0.00
     47 y          0.250000      0.241644     0.008356    Fractional   3.34
     47 z          0.500000      0.508597     0.008597    Fractional   1.72
     48 x          0.500000      0.477639     0.022361    Fractional   4.47
     48 y          0.750000      0.777715     0.027715    Fractional   3.70
     48 z          0.000000      0.977366     0.977366    Fractional   0.00
     49 x          0.500000      0.509612     0.009612    Fractional   1.92
     49 y          0.250000      0.239495     0.010505    Fractional   4.20
     49 z          0.000000      0.999551     0.999551    Fractional   0.00
     50 x          0.000000      0.996471     0.996471    Fractional   0.00
     50 y          0.750000      0.790583     0.040583    Fractional   5.41
     50 z          0.500000      0.484850     0.015150    Fractional   3.03
     51 x          0.750000      0.757543     0.007543    Fractional   1.01
     51 y          0.250000      0.271017     0.021017    Fractional   8.41
     51 z          0.750000      0.742654     0.007346    Fractional   0.98
     52 x          0.250000      0.243500     0.006500    Fractional   2.60
     52 y          0.750000      0.740680     0.009320    Fractional   1.24
     52 z          0.250000      0.239079     0.010921    Fractional   4.37
     53 x          0.750000      0.755319     0.005319    Fractional   0.71
     53 y          0.750000      0.771747     0.021747    Fractional   2.90
     53 z          0.250000      0.238720     0.011280    Fractional   4.51
     54 x          0.250000      0.235865     0.014135    Fractional   5.65
     54 y          0.250000      0.257938     0.007938    Fractional   3.18
     54 z          0.750000      0.742754     0.007246    Fractional   0.97
     55 x          0.250000      0.256968     0.006968    Fractional   2.79
     55 y          0.250000      0.287071     0.037071    Fractional  14.83
     55 z          0.250000      0.234434     0.015566    Fractional   6.23
     56 x          0.750000      0.724942     0.025058    Fractional   3.34
     56 y          0.500000      0.520930     0.020930    Fractional   4.19
     56 z          0.500000      0.523277     0.023277    Fractional   4.66
     57 x          0.500000      0.486563     0.013437    Fractional   2.69
     57 y          0.000000      0.001791     0.001791    Fractional   0.00
     57 z          0.750000      0.770564     0.020564    Fractional   2.74
     58 x          0.000000      0.010535     0.010535    Fractional   0.00
     58 y          0.750000      0.737363     0.012637    Fractional   1.68
     58 z          0.000000      0.987717     0.987717    Fractional   0.00
     59 x          0.250000      0.269341     0.019341    Fractional   7.74
     59 y          0.000000      0.012198     0.012198    Fractional   0.00
     59 z          0.000000      0.993561     0.993561    Fractional   0.00
     60 x          0.750000      0.762182     0.012182    Fractional   1.62
     60 y          0.750000      0.722918     0.027082    Fractional   3.61
     60 z          0.750000      0.738542     0.011458    Fractional   1.53
     61 x          0.500000      0.475683     0.024317    Fractional   4.86
     61 y          0.250000      0.255839     0.005839    Fractional   2.34
     61 z          0.500000      0.468931     0.031069    Fractional   6.21
     62 x          0.000000      0.028322     0.028322    Fractional   0.00
     62 y          0.500000      0.512467     0.012467    Fractional   2.49
     62 z          0.250000      0.221280     0.028720    Fractional  11.49
     63 x          0.500000      0.491360     0.008640    Fractional   1.73
     63 y          0.750000      0.755306     0.005306    Fractional   0.71
     63 z          0.500000      0.524874     0.024874    Fractional   4.97
     64 x          0.750000      0.742584     0.007416    Fractional   0.99
     64 y          0.500000      0.498917     0.001083    Fractional   0.22
     64 z          0.000000      0.958682     0.958682    Fractional   0.00
     65 x          0.000000      0.002773     0.002773    Fractional   0.00
     65 y          0.000000      0.038052     0.038052    Fractional   0.00
     65 z          0.750000      0.740164     0.009836    Fractional   1.31
     66 x          0.000000      0.985355     0.985355    Fractional   0.00
     66 y          0.250000      0.272652     0.022652    Fractional   9.06
     66 z          0.000000      0.957997     0.957997    Fractional   0.00
     67 x          0.500000      0.479563     0.020437    Fractional   4.09
     67 y          0.500000      0.503610     0.003610    Fractional   0.72
     67 z          0.250000      0.231986     0.018014    Fractional   7.21
     68 x          0.250000      0.261712     0.011712    Fractional   4.68
     68 y          0.000000      0.010100     0.010100    Fractional   0.00
     68 z          0.500000      0.513865     0.013865    Fractional   2.77
     69 x          0.250000      0.230105     0.019895    Fractional   7.96
     69 y          0.750000      0.783787     0.033787    Fractional   4.50
     69 z          0.750000      0.747728     0.002272    Fractional   0.30
     70 x          0.500000      0.519619     0.019619    Fractional   3.92
     70 y          0.000000      0.007810     0.007810    Fractional   0.00
     70 z          0.250000      0.211567     0.038433    Fractional  15.37
     71 x          0.750000      0.743935     0.006065    Fractional   0.81
     71 y          0.250000      0.218795     0.031205    Fractional  12.48
     71 z          0.250000      0.217333     0.032667    Fractional  13.07
     72 x          0.000000      0.971330     0.971330    Fractional   0.00
     72 y          0.500000      0.482509     0.017491    Fractional   3.50
     72 z          0.750000      0.743170     0.006830    Fractional   0.91
     73 x          0.250000      0.264469     0.014469    Fractional   5.79
     73 y          0.500000      0.511636     0.011636    Fractional   2.33
     73 z          0.500000      0.451516     0.048484    Fractional   9.70
     74 x          0.750000      0.720149     0.029851    Fractional   3.98
     74 y          0.000000      0.003141     0.003141    Fractional   0.00
     74 z          0.000000      0.009791     0.009791    Fractional   0.00
     75 x          0.250000      0.253042     0.003042    Fractional   1.22
     75 y          0.500000      0.513627     0.013627    Fractional   2.73
     75 z          0.000000      0.012302     0.012302    Fractional   0.00
     76 x          0.000000      0.974534     0.974534    Fractional   0.00
     76 y          0.000000      0.003734     0.003734    Fractional   0.00
     76 z          0.250000      0.236100     0.013900    Fractional   5.56
     77 x          0.500000      0.516040     0.016040    Fractional   3.21
     77 y          0.500000      0.512181     0.012181    Fractional   2.44
     77 z          0.750000      0.747278     0.002722    Fractional   0.36
     78 x          0.750000      0.727095     0.022905    Fractional   3.05
     78 y          0.000000      0.996488     0.996488    Fractional   0.00
     78 z          0.500000      0.448255     0.051745    Fractional  10.35
     79 x          0.000000      0.020936     0.020936    Fractional   0.00
     79 y          0.250000      0.237891     0.012109    Fractional   4.84
     79 z          0.500000      0.524337     0.024337    Fractional   4.87
     80 x          0.500000      0.478732     0.021268    Fractional   4.25
     80 y          0.750000      0.788946     0.038946    Fractional   5.19
     80 z          0.000000      0.977885     0.977885    Fractional   0.00
     81 x          0.500000      0.509756     0.009756    Fractional   1.95
     81 y          0.250000      0.228234     0.021766    Fractional   8.71
     81 z          0.000000      0.997904     0.997904    Fractional   0.00
     82 x          0.000000      0.996929     0.996929    Fractional   0.00
     82 y          0.750000      0.795280     0.045280    Fractional   6.04
     82 z          0.500000      0.482480     0.017520    Fractional   3.50
     83 x          0.750000      0.770117     0.020117    Fractional   2.68
     83 y          0.250000      0.283675     0.033675    Fractional  13.47
     83 z          0.750000      0.745318     0.004682    Fractional   0.62
     84 x          0.250000      0.239482     0.010518    Fractional   4.21
     84 y          0.750000      0.726630     0.023370    Fractional   3.12
     84 z          0.250000      0.238835     0.011165    Fractional   4.47
     85 x          0.750000      0.754813     0.004813    Fractional   0.64
     85 y          0.750000      0.782881     0.032881    Fractional   4.38
     85 z          0.250000      0.237582     0.012418    Fractional   4.97
     86 x          0.250000      0.224314     0.025686    Fractional  10.27
     86 y          0.250000      0.258341     0.008341    Fractional   3.34
     86 z          0.750000      0.743815     0.006185    Fractional   0.82

  Time to end of optimisation =       4.0996 seconds

  Timing analysis for GULP :

  Task / Subroutine                                          Time (Seconds)
  Calculation of reciprocal space energy and derivatives          0.2738
  Calculation of real space energy and derivatives                3.7613
  Calculation and manipulation of Hessian matrix                  0.0014
  Calculation of matrix inversion                                 0.0416
  Symmetry generation of equivalent positions                     0.0001
  Global summation overhead                                       0.0001

  Dump file written as halospinel.grs

  Job Finished at 14:49.37  4th March      2022