  Job Started  at 13:47.34 26th July       2022

  Number of CPUs =     1

  Total number of configurations input =      1

*  Input for Configuration =   1                                               *

  Formula = Li17Sc5Cl32

  Number of irreducible atoms/shells =      86

  Total number atoms/shells =      86

  Dimensionality = 3               :  Bulk

  Cartesian lattice vectors (Angstroms) :

       10.403700    0.000000    0.000000
        0.000000   10.403700    0.000000
        0.000000    0.000000   10.403700

  Cell parameters (Angstroms/Degrees):

  a =      10.4037    alpha =  90.0000
  b =      10.4037    beta  =  90.0000
  c =      10.4037    gamma =  90.0000

  Initial cell volume =        1126.065003 Angs**3

  Temperature of configuration =   0.00     K

  Pressure of configuration =         0.000 GPa

  Fractional coordinates of asymmetric unit :

   No.  Atomic       x           y          z         Charge      Occupancy
        Label      (Frac)      (Frac)     (Frac)        (e)         (Frac)
      1 Li    c    0.375000    0.375000    0.875000     1.00000    1.000000
      2 Li    c    0.250000 *  0.750000 *  0.500000 *   1.00000    1.000000
      3 Li    c    0.000000 *  0.750000 *  0.750000 *   1.00000    1.000000
      4 Li    c    0.750000 *  0.500000 *  0.250000 *   1.00000    1.000000
      5 Li    c    0.500000 *  0.000000 *  0.500000 *   1.00000    1.000000
      6 Li    c    0.125000 *  0.875000 *  0.125000 *   1.00000    1.000000
      7 Li    c    0.500000 *  0.500000 *  0.500000 *   1.00000    1.000000
      8 Li    c    0.500000 *  0.750000 *  0.750000 *   1.00000    1.000000
      9 Li    c    0.250000 *  0.750000 *  0.000000 *   1.00000    1.000000
     10 Li    c    0.250000 *  0.250000 *  0.500000 *   1.00000    1.000000
     11 Li    c    0.750000 *  0.250000 *  0.000000 *   1.00000    1.000000
     12 Li    c    0.500000 *  0.250000 *  0.250000 *   1.00000    1.000000
     13 Li    c    0.000000 *  0.750000 *  0.250000 *   1.00000    1.000000
     14 Li    c    0.750000 *  0.750000 *  0.500000 *   1.00000    1.000000
     15 Li    c    0.250000 *  0.000000 *  0.750000 *   1.00000    1.000000
     16 Li    c    0.000000 *  0.500000 *  0.000000 *   1.00000    1.000000
     17 Li    c    0.000000 *  0.000000 *  0.500000 *   1.00000    1.000000
     18 Sc    c    0.250000 *  0.500000 *  0.250000 *   3.00000    1.000000
     19 Sc    c    0.750000 *  0.500000 *  0.750000 *   3.00000    1.000000
     20 Sc    c    0.000000 *  0.250000 *  0.750000 *   3.00000    1.000000
     21 Sc    c    0.500000 *  0.000000 *  0.000000 *   3.00000    1.000000
     22 Sc    c    0.750000 *  0.000000 *  0.250000 *   3.00000    1.000000
     23 Cl    c    0.250000 *  0.250000 *  0.250000 *   1.48500    1.000000
     24 Cl    c    0.750000 *  0.500000 *  0.500000 *   1.48500    1.000000
     25 Cl    c    0.500000 *  0.000000 *  0.750000 *   1.48500    1.000000
     26 Cl    c    0.000000 *  0.750000 *  0.000000 *   1.48500    1.000000
     27 Cl    c    0.250000 *  0.000000 *  0.000000 *   1.48500    1.000000
     28 Cl    c    0.750000 *  0.750000 *  0.750000 *   1.48500    1.000000
     29 Cl    c    0.500000 *  0.250000 *  0.500000 *   1.48500    1.000000
     30 Cl    c    0.000000 *  0.500000 *  0.250000 *   1.48500    1.000000
     31 Cl    c    0.500000 *  0.750000 *  0.500000 *   1.48500    1.000000
     32 Cl    c    0.750000 *  0.500000 *  0.000000 *   1.48500    1.000000
     33 Cl    c    0.000000 *  0.000000 *  0.750000 *   1.48500    1.000000
     34 Cl    c    0.000000 *  0.250000 *  0.000000 *   1.48500    1.000000
     35 Cl    c    0.500000 *  0.500000 *  0.250000 *   1.48500    1.000000
     36 Cl    c    0.250000 *  0.000000 *  0.500000 *   1.48500    1.000000
     37 Cl    c    0.250000 *  0.750000 *  0.750000 *   1.48500    1.000000
     38 Cl    c    0.500000 *  0.000000 *  0.250000 *   1.48500    1.000000
     39 Cl    c    0.750000 *  0.250000 *  0.250000 *   1.48500    1.000000
     40 Cl    c    0.000000 *  0.500000 *  0.750000 *   1.48500    1.000000
     41 Cl    c    0.250000 *  0.500000 *  0.500000 *   1.48500    1.000000
     42 Cl    c    0.750000 *  0.000000 *  0.000000 *   1.48500    1.000000
     43 Cl    c    0.250000 *  0.500000 *  0.000000 *   1.48500    1.000000
     44 Cl    c    0.000000 *  0.000000 *  0.250000 *   1.48500    1.000000
     45 Cl    c    0.500000 *  0.500000 *  0.750000 *   1.48500    1.000000
     46 Cl    c    0.750000 *  0.000000 *  0.500000 *   1.48500    1.000000
     47 Cl    c    0.000000 *  0.250000 *  0.500000 *   1.48500    1.000000
     48 Cl    c    0.500000 *  0.750000 *  0.000000 *   1.48500    1.000000
     49 Cl    c    0.500000 *  0.250000 *  0.000000 *   1.48500    1.000000
     50 Cl    c    0.000000 *  0.750000 *  0.500000 *   1.48500    1.000000
     51 Cl    c    0.750000 *  0.250000 *  0.750000 *   1.48500    1.000000
     52 Cl    c    0.250000 *  0.750000 *  0.250000 *   1.48500    1.000000
     53 Cl    c    0.750000 *  0.750000 *  0.250000 *   1.48500    1.000000
     54 Cl    c    0.250000 *  0.250000 *  0.750000 *   1.48500    1.000000
     55 Cl    s    0.250000 *  0.250000 *  0.250000 *  -2.48500    1.000000
     56 Cl    s    0.750000 *  0.500000 *  0.500000 *  -2.48500    1.000000
     57 Cl    s    0.500000 *  0.000000 *  0.750000 *  -2.48500    1.000000
     58 Cl    s    0.000000 *  0.750000 *  0.000000 *  -2.48500    1.000000
     59 Cl    s    0.250000 *  0.000000 *  0.000000 *  -2.48500    1.000000
     60 Cl    s    0.750000 *  0.750000 *  0.750000 *  -2.48500    1.000000
     61 Cl    s    0.500000 *  0.250000 *  0.500000 *  -2.48500    1.000000
     62 Cl    s    0.000000 *  0.500000 *  0.250000 *  -2.48500    1.000000
     63 Cl    s    0.500000 *  0.750000 *  0.500000 *  -2.48500    1.000000
     64 Cl    s    0.750000 *  0.500000 *  0.000000 *  -2.48500    1.000000
     65 Cl    s    0.000000 *  0.000000 *  0.750000 *  -2.48500    1.000000
     66 Cl    s    0.000000 *  0.250000 *  0.000000 *  -2.48500    1.000000
     67 Cl    s    0.500000 *  0.500000 *  0.250000 *  -2.48500    1.000000
     68 Cl    s    0.250000 *  0.000000 *  0.500000 *  -2.48500    1.000000
     69 Cl    s    0.250000 *  0.750000 *  0.750000 *  -2.48500    1.000000
     70 Cl    s    0.500000 *  0.000000 *  0.250000 *  -2.48500    1.000000
     71 Cl    s    0.750000 *  0.250000 *  0.250000 *  -2.48500    1.000000
     72 Cl    s    0.000000 *  0.500000 *  0.750000 *  -2.48500    1.000000
     73 Cl    s    0.250000 *  0.500000 *  0.500000 *  -2.48500    1.000000
     74 Cl    s    0.750000 *  0.000000 *  0.000000 *  -2.48500    1.000000
     75 Cl    s    0.250000 *  0.500000 *  0.000000 *  -2.48500    1.000000
     76 Cl    s    0.000000 *  0.000000 *  0.250000 *  -2.48500    1.000000
     77 Cl    s    0.500000 *  0.500000 *  0.750000 *  -2.48500    1.000000
     78 Cl    s    0.750000 *  0.000000 *  0.500000 *  -2.48500    1.000000
     79 Cl    s    0.000000 *  0.250000 *  0.500000 *  -2.48500    1.000000
     80 Cl    s    0.500000 *  0.750000 *  0.000000 *  -2.48500    1.000000
     81 Cl    s    0.500000 *  0.250000 *  0.000000 *  -2.48500    1.000000
     82 Cl    s    0.000000 *  0.750000 *  0.500000 *  -2.48500    1.000000
     83 Cl    s    0.750000 *  0.250000 *  0.750000 *  -2.48500    1.000000
     84 Cl    s    0.250000 *  0.750000 *  0.250000 *  -2.48500    1.000000
     85 Cl    s    0.750000 *  0.750000 *  0.250000 *  -2.48500    1.000000
     86 Cl    s    0.250000 *  0.250000 *  0.750000 *  -2.48500    1.000000

*  General input information                                                   *

  Species output for all configurations :

  Species    Type    Atomic    Atomic    Charge       Radii (Angs)     Library
                     Number     Mass       (e)     Cova   Ionic  VDW   Symbol
    Li       Core        3       6.94   1.000000   0.680  0.000  1.800
    Sc       Core       21      44.96   3.000000   1.440  0.000  2.150
    Cl       Core       17      35.45   1.485000   0.990  0.000  1.650
    Cl       Shell      17       0.00  -2.485000   0.990  0.000  1.650

  Lattice summation method               =    Ewald          (3-D)
                                         =    Parry          (2-D)
                                         =    Saunders et al (1-D)
  Accuracy factor for lattice sums       =   12.000

  Analytic derivatives to be used

  Time limit = Infinity

  Maximum range for interatomic potentials =    100000.000000 Angstroms

  General interatomic potentials :

Atom  Types   Potential      Parameter       Value         Units   Cutoffs(Ang)
  1     2                                                            Min /  Max
Cl   c Cl   s Spring (c-s)  Spring k 2       29.380000    eV*Ang^-2 0.000  0.800
                            Spring k 4       0.0000000    eV*Ang^-4
Li   c Li   c Buckingham    Buckingham A     360.53000    eV        0.000 12.000
                            Buckingham rho  0.16100000    Ang
                            Buckingham C     0.0000000    eV*Ang^6
Li   c Cl   s Buckingham    Buckingham A     421.04000    eV        0.000 12.000
                            Buckingham rho  0.33400000    Ang
                            Buckingham C     0.0000000    eV*Ang^6
Sc   c Cl   s Buckingham    Buckingham A     12131.350    eV        0.000 12.000
                            Buckingham rho  0.25070000    Ang
                            Buckingham C     0.0000000    eV*Ang^6
Cl   s Cl   s Buckingham    Buckingham A     1227.2000    eV        0.000 12.000
                            Buckingham rho  0.32100000    Ang
                            Buckingham C     14.530000    eV*Ang^6

*  Output for configuration   1                                                *

  Components of energy :

  Interatomic potentials     =          32.32106585 eV
  Monopole - monopole (real) =        -203.26936708 eV
  Monopole - monopole (recip)=        -187.00458965 eV
  Monopole - monopole (total)=        -390.27395673 eV
  Total lattice energy       =        -357.95289088 eV
  Total lattice energy       =          -34536.9822 kJ/(mole unit cells)

  Number of variables =      261

  Maximum number of calculations  =          1000
  Maximum Hessian update interval =            10
  Maximum step size               =   1.000000000
  Maximum parameter tolerance     =   0.000010000
  Maximum function  tolerance     =   0.000010000
  Maximum gradient  tolerance     =   0.001000000
  Maximum gradient  component     =   0.010000000

  Symmetry not applied to optimisation

  Cell parameters to be optimised using strains

  Newton-Raphson optimiser to be used

  BFGS hessian update to be used

  Lower half triangular hessian to be used

  Start of bulk optimisation :

  ** Hessian calculated **
  ** Hessian calculated **
  ** Hessian calculated **
  ** Hessian calculated **
  ** Hessian calculated **
  ** Hessian calculated **
  ** Hessian calculated **
  ** Hessian calculated **
  ** Hessian calculated **
  ** Hessian calculated **
  ** Hessian calculated **
  ** Hessian calculated **
  ** Hessian calculated **
  ** Hessian calculated **
  ** Hessian calculated **
[...]
     16 y          0.500000      0.642502     0.142502    Fractional  28.50
     16 z          0.000000      0.899610     0.899610    Fractional   0.00
     17 x          0.000000      0.136350     0.136350    Fractional   0.00
     17 y          0.000000      0.115781     0.115781    Fractional   0.00
     17 z          0.500000      0.376012     0.123988    Fractional  24.80
     18 x          0.250000      0.361494     0.111494    Fractional  44.60
     18 y          0.500000      0.611297     0.111297    Fractional  22.26
     18 z          0.250000      0.131200     0.118800    Fractional  47.52
     19 x          0.750000      0.867394     0.117394    Fractional  15.65
     19 y          0.500000      0.606115     0.106115    Fractional  21.22
     19 z          0.750000      0.622723     0.127277    Fractional  16.97
     20 x          0.000000      0.114724     0.114724    Fractional   0.00
     20 y          0.250000      0.352174     0.102174    Fractional  40.87
     20 z          0.750000      0.627083     0.122917    Fractional  16.39
     21 x          0.500000      0.613239     0.113239    Fractional  22.65
     21 y          0.000000      0.101661     0.101661    Fractional   0.00
     21 z          0.000000      0.877063     0.877063    Fractional   0.00
     22 x          0.750000      0.863908     0.113908    Fractional  15.19
     22 y          0.000000      0.103040     0.103040    Fractional   0.00
     22 z          0.250000      0.129625     0.120375    Fractional  48.15
     23 x          0.250000      0.367581     0.117581    Fractional  47.03
     23 y          0.250000      0.377061     0.127061    Fractional  50.82
     23 z          0.250000      0.117228     0.132772    Fractional  53.11
     24 x          0.750000      0.854873     0.104873    Fractional  13.98
     24 y          0.500000      0.612124     0.112124    Fractional  22.42
     24 z          0.500000      0.388421     0.111579    Fractional  22.32
     25 x          0.500000      0.625423     0.125423    Fractional  25.08
     25 y          0.000000      0.090293     0.090293    Fractional   0.00
     25 z          0.750000      0.646266     0.103734    Fractional  13.83
     26 x          0.000000      0.140981     0.140981    Fractional   0.00
     26 y          0.750000      0.870530     0.120530    Fractional  16.07
     26 z          0.000000      0.854922     0.854922    Fractional   0.00
     27 x          0.250000      0.378278     0.128278    Fractional  51.31
     27 y          0.000000      0.116925     0.116925    Fractional   0.00
     27 z          0.000000      0.874036     0.874036    Fractional   0.00
     28 x          0.750000      0.890653     0.140653    Fractional  18.75
     28 y          0.750000      0.839113     0.089113    Fractional  11.88
     28 z          0.750000      0.623239     0.126761    Fractional  16.90
     29 x          0.500000      0.596904     0.096904    Fractional  19.38
     29 y          0.250000      0.347263     0.097263    Fractional  38.91
     29 z          0.500000      0.362247     0.137753    Fractional  27.55
     30 x          0.000000      0.124296     0.124296    Fractional   0.00
     30 y          0.500000      0.629260     0.129260    Fractional  25.85
     30 z          0.250000      0.127806     0.122194    Fractional  48.88
     31 x          0.500000      0.615779     0.115779    Fractional  23.16
     31 y          0.750000      0.878377     0.128377    Fractional  17.12
     31 z          0.500000      0.380474     0.119526    Fractional  23.91
     32 x          0.750000      0.875788     0.125788    Fractional  16.77
     32 y          0.500000      0.603996     0.103996    Fractional  20.80
     32 z          0.000000      0.857575     0.857575    Fractional   0.00
     33 x          0.000000      0.112921     0.112921    Fractional   0.00
     33 y          0.000000      0.118296     0.118296    Fractional   0.00
     33 z          0.750000      0.635354     0.114646    Fractional  15.29
     34 x          0.000000      0.111766     0.111766    Fractional   0.00
     34 y          0.250000      0.343469     0.093469    Fractional  37.39
     34 z          0.000000      0.862991     0.862991    Fractional   0.00
     35 x          0.500000      0.600595     0.100595    Fractional  20.12
     35 y          0.500000      0.608637     0.108637    Fractional  21.73
     35 z          0.250000      0.131975     0.118025    Fractional  47.21
     36 x          0.250000      0.377004     0.127004    Fractional  50.80
     36 y          0.000000      0.114072     0.114072    Fractional   0.00
     36 z          0.500000      0.394555     0.105445    Fractional  21.09
     37 x          0.250000      0.370472     0.120472    Fractional  48.19
     37 y          0.750000      0.871210     0.121210    Fractional  16.16
     37 z          0.750000      0.624103     0.125897    Fractional  16.79
     38 x          0.500000      0.620971     0.120971    Fractional  24.19
     38 y          0.000000      0.097840     0.097840    Fractional   0.00
     38 z          0.250000      0.117040     0.132960    Fractional  53.18
     39 x          0.750000      0.855895     0.105895    Fractional  14.12
     39 y          0.250000      0.335734     0.085734    Fractional  34.29
     39 z          0.250000      0.120127     0.129873    Fractional  51.95
     40 x          0.000000      0.109833     0.109833    Fractional   0.00
     40 y          0.500000      0.589573     0.089573    Fractional  17.91
     40 z          0.750000      0.626617     0.123383    Fractional  16.45
     41 x          0.250000      0.371923     0.121923    Fractional  48.77
     41 y          0.500000      0.607598     0.107598    Fractional  21.52
     41 z          0.500000      0.365942     0.134058    Fractional  26.81
     42 x          0.750000      0.852449     0.102449    Fractional  13.66
     42 y          0.000000      0.096441     0.096441    Fractional   0.00
     42 z          0.000000      0.889785     0.889785    Fractional   0.00
     43 x          0.250000      0.351256     0.101256    Fractional  40.50
     43 y          0.500000      0.611938     0.111938    Fractional  22.39
     43 z          0.000000      0.894553     0.894553    Fractional   0.00
     44 x          0.000000      0.099244     0.099244    Fractional   0.00
     44 y          0.000000      0.093866     0.093866    Fractional   0.00
     44 z          0.250000      0.113416     0.136584    Fractional  54.63
     45 x          0.500000      0.631309     0.131309    Fractional  26.26
     45 y          0.500000      0.615524     0.115524    Fractional  23.10
     45 z          0.750000      0.628622     0.121378    Fractional  16.18
     46 x          0.750000      0.858931     0.108931    Fractional  14.52
     46 y          0.000000      0.105384     0.105384    Fractional   0.00
     46 z          0.500000      0.362762     0.137238    Fractional  27.45
     47 x          0.000000      0.125513     0.125513    Fractional   0.00
     47 y          0.250000      0.343691     0.093691    Fractional  37.48
     47 z          0.500000      0.394348     0.105652    Fractional  21.13
     48 x          0.500000      0.603101     0.103101    Fractional  20.62
     48 y          0.750000      0.868700     0.118700    Fractional  15.83
     48 z          0.000000      0.888935     0.888935    Fractional   0.00
     49 x          0.500000      0.615537     0.115537    Fractional  23.11
     49 y          0.250000      0.334808     0.084808    Fractional  33.92
     49 z          0.000000      0.886051     0.886051    Fractional   0.00
     50 x          0.000000      0.127478     0.127478    Fractional   0.00
     50 y          0.750000      0.891377     0.141377    Fractional  18.85
     50 z          0.500000      0.384374     0.115626    Fractional  23.13
     51 x          0.750000      0.874365     0.124365    Fractional  16.58
     51 y          0.250000      0.367032     0.117032    Fractional  46.81
     51 z          0.750000      0.624543     0.125457    Fractional  16.73
     52 x          0.250000      0.370733     0.120733    Fractional  48.29
     52 y          0.750000      0.847434     0.097434    Fractional  12.99
     52 z          0.250000      0.132214     0.117786    Fractional  47.11
     53 x          0.750000      0.863380     0.113380    Fractional  15.12
     53 y          0.750000      0.867930     0.117930    Fractional  15.72
     53 z          0.250000      0.137080     0.112920    Fractional  45.17
     54 x          0.250000      0.351138     0.101138    Fractional  40.46
     54 y          0.250000      0.357995     0.107995    Fractional  43.20
     54 z          0.750000      0.641234     0.108766    Fractional  14.50
     55 x          0.250000      0.371792     0.121792    Fractional  48.72
     55 y          0.250000      0.394274     0.144274    Fractional  57.71
     55 z          0.250000      0.116611     0.133389    Fractional  53.36
     56 x          0.750000      0.849957     0.099957    Fractional  13.33
     56 y          0.500000      0.616746     0.116746    Fractional  23.35
     56 z          0.500000      0.407011     0.092989    Fractional  18.60
     57 x          0.500000      0.619715     0.119715    Fractional  23.94
     57 y          0.000000      0.087577     0.087577    Fractional   0.00
     57 z          0.750000      0.660519     0.089481    Fractional  11.93
     58 x          0.000000      0.146426     0.146426    Fractional   0.00
     58 y          0.750000      0.871719     0.121719    Fractional  16.23
     58 z          0.000000      0.852623     0.852623    Fractional   0.00
     59 x          0.250000      0.392367     0.142367    Fractional  56.95
     59 y          0.000000      0.116072     0.116072    Fractional   0.00
     59 z          0.000000      0.870633     0.870633    Fractional   0.00
     60 x          0.750000      0.891288     0.141288    Fractional  18.84
     60 y          0.750000      0.822057     0.072057    Fractional   9.61
     60 z          0.750000      0.617324     0.132676    Fractional  17.69
     61 x          0.500000      0.591667     0.091667    Fractional  18.33
     61 y          0.250000      0.346844     0.096844    Fractional  38.74
     61 z          0.500000      0.357012     0.142988    Fractional  28.60
     62 x          0.000000      0.141585     0.141585    Fractional   0.00
     62 y          0.500000      0.635930     0.135930    Fractional  27.19
     62 z          0.250000      0.121153     0.128847    Fractional  51.54
     63 x          0.500000      0.615047     0.115047    Fractional  23.01
     63 y          0.750000      0.879492     0.129492    Fractional  17.27
     63 z          0.500000      0.380726     0.119274    Fractional  23.85
     64 x          0.750000      0.881923     0.131923    Fractional  17.59
     64 y          0.500000      0.597343     0.097343    Fractional  19.47
     64 z          0.000000      0.841768     0.841768    Fractional   0.00
     65 x          0.000000      0.117265     0.117265    Fractional   0.00
     65 y          0.000000      0.131795     0.131795    Fractional   0.00
     65 z          0.750000      0.636549     0.113451    Fractional  15.13
     66 x          0.000000      0.111083     0.111083    Fractional   0.00
     66 y          0.250000      0.341921     0.091921    Fractional  36.77
     66 z          0.000000      0.846250     0.846250    Fractional   0.00
     67 x          0.500000      0.584979     0.084979    Fractional  17.00
     67 y          0.500000      0.610028     0.110028    Fractional  22.01
     67 z          0.250000      0.135862     0.114138    Fractional  45.66
     68 x          0.250000      0.376946     0.126946    Fractional  50.78
     68 y          0.000000      0.114270     0.114270    Fractional   0.00
     68 z          0.500000      0.400427     0.099573    Fractional  19.91
     69 x          0.250000      0.370206     0.120206    Fractional  48.08
     69 y          0.750000      0.875350     0.125350    Fractional  16.71
     69 z          0.750000      0.624107     0.125893    Fractional  16.79
     70 x          0.500000      0.636606     0.136606    Fractional  27.32
     70 y          0.000000      0.097894     0.097894    Fractional   0.00
     70 z          0.250000      0.104037     0.145963    Fractional  58.39
     71 x          0.750000      0.850607     0.100607    Fractional  13.41
     71 y          0.250000      0.318324     0.068324    Fractional  27.33
     71 z          0.250000      0.113068     0.136932    Fractional  54.77
     72 x          0.000000      0.094077     0.094077    Fractional   0.00
     72 y          0.500000      0.576950     0.076950    Fractional  15.39
     72 z          0.750000      0.629694     0.120306    Fractional  16.04
     73 x          0.250000      0.376265     0.126265    Fractional  50.51
     73 y          0.500000      0.606837     0.106837    Fractional  21.37
     73 z          0.500000      0.348633     0.151367    Fractional  30.27
     74 x          0.750000      0.838804     0.088804    Fractional  11.84
     74 y          0.000000      0.100275     0.100275    Fractional   0.00
     74 z          0.000000      0.905276     0.905276    Fractional   0.00
     75 x          0.250000      0.348067     0.098067    Fractional  39.23
     75 y          0.500000      0.612004     0.112004    Fractional  22.40
     75 z          0.000000      0.910422     0.910422    Fractional   0.00
     76 x          0.000000      0.081752     0.081752    Fractional   0.00
     76 y          0.000000      0.089644     0.089644    Fractional   0.00
     76 z          0.250000      0.112701     0.137299    Fractional  54.92
     77 x          0.500000      0.649332     0.149332    Fractional  29.87
     77 y          0.500000      0.620650     0.120650    Fractional  24.13
     77 z          0.750000      0.622398     0.127602    Fractional  17.01
     78 x          0.750000      0.856975     0.106975    Fractional  14.26
     78 y          0.000000      0.101009     0.101009    Fractional   0.00
     78 z          0.500000      0.344654     0.155346    Fractional  31.07
     79 x          0.000000      0.130838     0.130838    Fractional   0.00
     79 y          0.250000      0.336985     0.086985    Fractional  34.79
     79 z          0.500000      0.413199     0.086801    Fractional  17.36
     80 x          0.500000      0.597993     0.097993    Fractional  19.60
     80 y          0.750000      0.886930     0.136930    Fractional  18.26
     80 z          0.000000      0.888451     0.888451    Fractional   0.00
     81 x          0.500000      0.614632     0.114632    Fractional  22.93
     81 y          0.250000      0.317714     0.067714    Fractional  27.09
     81 z          0.000000      0.889185     0.889185    Fractional   0.00
     82 x          0.000000      0.128991     0.128991    Fractional   0.00
     82 y          0.750000      0.896065     0.146065    Fractional  19.48
     82 z          0.500000      0.383798     0.116202    Fractional  23.24
     83 x          0.750000      0.891500     0.141500    Fractional  18.87
     83 y          0.250000      0.382689     0.132689    Fractional  53.08
     83 z          0.750000      0.628512     0.121488    Fractional  16.20
     84 x          0.250000      0.370478     0.120478    Fractional  48.19
     84 y          0.750000      0.831142     0.081142    Fractional  10.82
     84 z          0.250000      0.133732     0.116268    Fractional  46.51
     85 x          0.750000      0.862355     0.112355    Fractional  14.98
     85 y          0.750000      0.884757     0.134757    Fractional  17.97
     85 z          0.250000      0.141633     0.108367    Fractional  43.35
     86 x          0.250000      0.333523     0.083523    Fractional  33.41
     86 y          0.250000      0.353790     0.103790    Fractional  41.52
     86 z          0.750000      0.643023     0.106977    Fractional  14.26

  Time to end of optimisation =       9.5617 seconds

  Timing analysis for GULP :

  Task / Subroutine                                          Time (Seconds)
  Calculation of reciprocal space energy and derivatives          0.5743
  Calculation of real space energy and derivatives                8.8717
  Calculation and manipulation of Hessian matrix                  0.0023
  Calculation of matrix inversion                                 0.0688
  Symmetry generation of equivalent positions                     0.0001
  Global summation overhead                                       0.0003

  Dump file written as halospinel.grs

  Job Finished at 13:47.43 26th July       2022