  Job Started  at 13:58.11 26th July       2022

  Number of CPUs =     1

  Total number of configurations input =      1

*  Input for Configuration =   1                                               *

  Formula = Li17Sc5Cl32

  Number of irreducible atoms/shells =      86

  Total number atoms/shells =      86

  Dimensionality = 3               :  Bulk

  Cartesian lattice vectors (Angstroms) :

       10.280295    0.000000    0.000000
       -0.010581   10.313302    0.000000
       -0.032590   -0.029490   10.287008

  Cell parameters (Angstroms/Degrees):

  a =      10.2803    alpha =  90.1641
  b =      10.3133    beta  =  90.1815
  c =      10.2871    gamma =  90.0588

  Initial cell volume =        1090.667648 Angs**3

  Temperature of configuration =   0.00     K

  Pressure of configuration =         0.000 GPa

  Fractional coordinates of asymmetric unit :

   No.  Atomic       x           y          z         Charge      Occupancy
        Label      (Frac)      (Frac)     (Frac)        (e)         (Frac)
      1 Li    c    0.372539    0.372285    0.883106     1.00000    1.000000
      2 Li    c    0.505930 *  0.750545 *  0.251368 *   1.00000    1.000000
      3 Li    c    0.260625 *  0.739342 *  0.516742 *   1.00000    1.000000
      4 Li    c    0.750776 *  0.494940 *  0.250769 *   1.00000    1.000000
      5 Li    c    0.505863 *  0.015095 *  0.505814 *   1.00000    1.000000
      6 Li    c    0.772397 *  0.771912 *  0.005974 *   1.00000    1.000000
      7 Li    c    0.504776 *  0.472669 *  0.505248 *   1.00000    1.000000
      8 Li    c    0.494078 *  0.750429 *  0.749492 *   1.00000    1.000000
      9 Li    c    0.237884 *  0.760931 *  0.983331 *   1.00000    1.000000
     10 Li    c    0.260779 *  0.249980 *  0.494207 *   1.00000    1.000000
     11 Li    c    0.760893 *  0.259947 *  0.016514 *   1.00000    1.000000
     12 Li    c    0.505982 *  0.250101 *  0.261413 *   1.00000    1.000000
     13 Li    c    0.997524 *  0.755475 *  0.242802 *   1.00000    1.000000
     14 Li    c    0.749539 *  0.750475 *  0.504536 *   1.00000    1.000000
     15 Li    c    0.250446 *  0.983368 *  0.750992 *   1.00000    1.000000
     16 Li    c    0.758798 *  0.034722 *  0.250307 *   1.00000    1.000000
     17 Li    c    0.005589 *  0.516379 *  0.005540 *   1.00000    1.000000
     18 Sc    c    0.249666 *  0.494616 *  0.250710 *   3.00000    1.000000
     19 Sc    c    0.750136 *  0.505662 *  0.749865 *   3.00000    1.000000
     20 Sc    c    0.005281 *  0.249932 *  0.760920 *   3.00000    1.000000
     21 Sc    c    0.495027 *  0.005446 *  0.995040 *   3.00000    1.000000
     22 Sc    c    0.994797 *  0.994781 *  0.494560 *   3.00000    1.000000
     23 Cl    c    0.259539 *  0.262561 *  0.251792 *   1.48500    1.000000
     24 Cl    c    0.744173 *  0.510149 *  0.511651 *   1.48500    1.000000
     25 Cl    c    0.499371 *  0.999408 *  0.757095 *   1.48500    1.000000
     26 Cl    c    0.002459 *  0.746977 *  0.010801 *   1.48500    1.000000
     27 Cl    c    0.261338 *  0.996869 *  0.995090 *   1.48500    1.000000
     28 Cl    c    0.745713 *  0.741784 *  0.755407 *   1.48500    1.000000
     29 Cl    c    0.492476 *  0.241804 *  0.495580 *   1.48500    1.000000
     30 Cl    c    0.011375 *  0.506898 *  0.248431 *   1.48500    1.000000
     31 Cl    c    0.502476 *  0.766350 *  0.501221 *   1.48500    1.000000
     32 Cl    c    0.755584 *  0.505899 *  0.991791 *   1.48500    1.000000
     33 Cl    c    0.999039 *  0.010210 *  0.744903 *   1.48500    1.000000
     34 Cl    c    0.000607 *  0.262645 *  0.992180 *   1.48500    1.000000
     35 Cl    c    0.496003 *  0.504759 *  0.259065 *   1.48500    1.000000
     36 Cl    c    0.239349 *  0.997223 *  0.507149 *   1.48500    1.000000
     37 Cl    c    0.262071 *  0.752082 *  0.750094 *   1.48500    1.000000
     38 Cl    c    0.509171 *  0.000473 *  0.242610 *   1.48500    1.000000
     39 Cl    c    0.743464 *  0.266176 *  0.244981 *   1.48500    1.000000
     40 Cl    c    0.993918 *  0.493406 *  0.748846 *   1.48500    1.000000
     41 Cl    c    0.259490 *  0.498996 *  0.492075 *   1.48500    1.000000
     42 Cl    c    0.739329 *  0.007020 *  0.006885 *   1.48500    1.000000
     43 Cl    c    0.250690 *  0.514304 *  0.009449 *   1.48500    1.000000
     44 Cl    c    0.994265 *  0.999715 *  0.262402 *   1.48500    1.000000
     45 Cl    c    0.510055 *  0.500756 *  0.746492 *   1.48500    1.000000
     46 Cl    c    0.756382 *  0.993684 *  0.496818 *   1.48500    1.000000
     47 Cl    c    0.004834 *  0.239508 *  0.514741 *   1.48500    1.000000
     48 Cl    c    0.506158 *  0.763849 *  0.003670 *   1.48500    1.000000
     49 Cl    c    0.509439 *  0.244668 *  0.008775 *   1.48500    1.000000
     50 Cl    c    0.001008 *  0.759481 *  0.499958 *   1.48500    1.000000
     51 Cl    c    0.760412 *  0.262948 *  0.756628 *   1.48500    1.000000
     52 Cl    c    0.257200 *  0.738445 *  0.257330 *   1.48500    1.000000
     53 Cl    c    0.749812 *  0.736843 *  0.251247 *   1.48500    1.000000
     54 Cl    c    0.243473 *  0.245076 *  0.744592 *   1.48500    1.000000
     55 Cl    s    0.259539 *  0.262561 *  0.251792 *  -2.48500    1.000000
     56 Cl    s    0.744173 *  0.510149 *  0.511651 *  -2.48500    1.000000
     57 Cl    s    0.499371 *  0.999408 *  0.757095 *  -2.48500    1.000000
     58 Cl    s    0.002459 *  0.746977 *  0.010801 *  -2.48500    1.000000
     59 Cl    s    0.261338 *  0.996869 *  0.995090 *  -2.48500    1.000000
     60 Cl    s    0.745713 *  0.741784 *  0.755407 *  -2.48500    1.000000
     61 Cl    s    0.492476 *  0.241804 *  0.495580 *  -2.48500    1.000000
     62 Cl    s    0.011375 *  0.506898 *  0.248431 *  -2.48500    1.000000
     63 Cl    s    0.502476 *  0.766350 *  0.501221 *  -2.48500    1.000000
     64 Cl    s    0.755584 *  0.505899 *  0.991791 *  -2.48500    1.000000
     65 Cl    s    0.999039 *  0.010210 *  0.744903 *  -2.48500    1.000000
     66 Cl    s    0.000607 *  0.262645 *  0.992180 *  -2.48500    1.000000
     67 Cl    s    0.496003 *  0.504759 *  0.259065 *  -2.48500    1.000000
     68 Cl    s    0.239349 *  0.997223 *  0.507149 *  -2.48500    1.000000
     69 Cl    s    0.262071 *  0.752082 *  0.750094 *  -2.48500    1.000000
     70 Cl    s    0.509171 *  0.000473 *  0.242610 *  -2.48500    1.000000
     71 Cl    s    0.743464 *  0.266176 *  0.244981 *  -2.48500    1.000000
     72 Cl    s    0.993918 *  0.493406 *  0.748846 *  -2.48500    1.000000
     73 Cl    s    0.259490 *  0.498996 *  0.492075 *  -2.48500    1.000000
     74 Cl    s    0.739329 *  0.007020 *  0.006885 *  -2.48500    1.000000
     75 Cl    s    0.250690 *  0.514304 *  0.009449 *  -2.48500    1.000000
     76 Cl    s    0.994265 *  0.999715 *  0.262402 *  -2.48500    1.000000
     77 Cl    s    0.510055 *  0.500756 *  0.746492 *  -2.48500    1.000000
     78 Cl    s    0.756382 *  0.993684 *  0.496818 *  -2.48500    1.000000
     79 Cl    s    0.004834 *  0.239508 *  0.514741 *  -2.48500    1.000000
     80 Cl    s    0.506158 *  0.763849 *  0.003670 *  -2.48500    1.000000
     81 Cl    s    0.509439 *  0.244668 *  0.008775 *  -2.48500    1.000000
     82 Cl    s    0.001008 *  0.759481 *  0.499958 *  -2.48500    1.000000
     83 Cl    s    0.760412 *  0.262948 *  0.756628 *  -2.48500    1.000000
     84 Cl    s    0.257200 *  0.738445 *  0.257330 *  -2.48500    1.000000
     85 Cl    s    0.749812 *  0.736843 *  0.251247 *  -2.48500    1.000000
     86 Cl    s    0.243473 *  0.245076 *  0.744592 *  -2.48500    1.000000

*  General input information                                                   *

  Species output for all configurations :

  Species    Type    Atomic    Atomic    Charge       Radii (Angs)     Library
                     Number     Mass       (e)     Cova   Ionic  VDW   Symbol
    Li       Core        3       6.94   1.000000   0.680  0.000  1.800
    Sc       Core       21      44.96   3.000000   1.440  0.000  2.150
    Cl       Core       17      35.45   1.485000   0.990  0.000  1.650
    Cl       Shell      17       0.00  -2.485000   0.990  0.000  1.650

  Lattice summation method               =    Ewald          (3-D)
                                         =    Parry          (2-D)
                                         =    Saunders et al (1-D)
  Accuracy factor for lattice sums       =   12.000

  Analytic derivatives to be used

  Time limit = Infinity

  Maximum range for interatomic potentials =    100000.000000 Angstroms

  General interatomic potentials :

Atom  Types   Potential      Parameter       Value         Units   Cutoffs(Ang)
  1     2                                                            Min /  Max
Cl   c Cl   s Spring (c-s)  Spring k 2       36.070000    eV*Ang^-2 0.000  0.800
                            Spring k 4       0.0000000    eV*Ang^-4
Li   c Li   c Buckingham    Buckingham A     360.53000    eV        0.000 12.000
                            Buckingham rho  0.16100000    Ang
                            Buckingham C     0.0000000    eV*Ang^6
Li   c Cl   s Buckingham    Buckingham A     421.04000    eV        0.000 12.000
                            Buckingham rho  0.33400000    Ang
                            Buckingham C     0.0000000    eV*Ang^6
Sc   c Cl   s Buckingham    Buckingham A     2456.2200    eV        0.000 12.000
                            Buckingham rho  0.31470000    Ang
                            Buckingham C     0.0000000    eV*Ang^6
Cl   s Cl   s Buckingham    Buckingham A     1227.2000    eV        0.000 12.000
                            Buckingham rho  0.32100000    Ang
                            Buckingham C     14.530000    eV*Ang^6

*  Output for configuration   1                                                *

  Components of energy :

  Interatomic potentials     =          51.31237084 eV
  Monopole - monopole (real) =        -222.89643199 eV
  Monopole - monopole (recip)=        -189.39504440 eV
  Monopole - monopole (total)=        -412.29147639 eV
  Total lattice energy       =        -360.97910555 eV
  Total lattice energy       =          -34828.9656 kJ/(mole unit cells)

  Number of variables =      261

  Maximum number of calculations  =          1000
  Maximum Hessian update interval =            10
  Maximum step size               =   1.000000000
  Maximum parameter tolerance     =   0.000010000
  Maximum function  tolerance     =   0.000010000
  Maximum gradient  tolerance     =   0.001000000
  Maximum gradient  component     =   0.010000000

  Symmetry not applied to optimisation

  Cell parameters to be optimised using strains

  Newton-Raphson optimiser to be used

  BFGS hessian update to be used

  Lower half triangular hessian to be used

  Start of bulk optimisation :

  ** Hessian calculated **
  ** Hessian calculated **
  ** Hessian calculated **
  ** Hessian calculated **

  **** Optimisation achieved ****

  Final energy =    -381.87630866 eV
  Final Gnorm  =       0.00013310

  Components of energy :

  Interatomic potentials     =          72.70357070 eV
  Monopole - monopole (real) =         194.56764613 eV
  Monopole - monopole (recip)=        -649.14752549 eV
[...]
     16 y          0.034722      0.049821     0.015099    Fractional  43.49
     16 z          0.250307      0.234798     0.015509    Fractional   6.20
     17 x          0.005589      0.011893     0.006304    Fractional 112.79
     17 y          0.516379      0.520963     0.004584    Fractional   0.89
     17 z          0.005540      0.989417     0.016124    Fractional   1.60
     18 x          0.249666      0.256344     0.006678    Fractional   2.67
     18 y          0.494616      0.506291     0.011675    Fractional   2.36
     18 z          0.250710      0.235534     0.015175    Fractional   6.05
     19 x          0.750136      0.751331     0.001195    Fractional   0.16
     19 y          0.505662      0.510034     0.004372    Fractional   0.86
     19 z          0.749865      0.732958     0.016907    Fractional   2.25
     20 x          0.005281      0.013174     0.007893    Fractional 149.45
     20 y          0.249932      0.259995     0.010063    Fractional   4.03
     20 z          0.760920      0.734339     0.026582    Fractional   3.49
     21 x          0.495027      0.515550     0.020523    Fractional   4.15
     21 y          0.005446      0.012904     0.007459    Fractional 136.97
     21 z          0.995040      0.984928     0.010112    Fractional   1.02
     22 x          0.994797      0.001494     0.006697    Fractional   0.67
     22 y          0.994781      0.004559     0.009777    Fractional   0.98
     22 z          0.494560      0.483458     0.011102    Fractional   2.24
     23 x          0.259539      0.272878     0.013339    Fractional   5.14
     23 y          0.262561      0.277099     0.014538    Fractional   5.54
     23 z          0.251792      0.236324     0.015468    Fractional   6.14
     24 x          0.744173      0.741973     0.002199    Fractional   0.30
     24 y          0.510149      0.511254     0.001105    Fractional   0.22
     24 z          0.511651      0.503020     0.008631    Fractional   1.69
     25 x          0.499371      0.518053     0.018682    Fractional   3.74
     25 y          0.999408      0.008055     0.008646    Fractional   0.87
     25 z          0.757095      0.748900     0.008195    Fractional   1.08
     26 x          0.002459      0.003234     0.000775    Fractional  31.51
     26 y          0.746977      0.746080     0.000898    Fractional   0.12
     26 z          0.010801      0.001740     0.009061    Fractional  83.89
     27 x          0.261338      0.283331     0.021993    Fractional   8.42
     27 y          0.996869      0.001814     0.004945    Fractional   0.50
     27 z          0.995090      0.968507     0.026582    Fractional   2.67
     28 x          0.745713      0.746826     0.001113    Fractional   0.15
     28 y          0.741784      0.740162     0.001622    Fractional   0.22
     28 z          0.755407      0.731971     0.023436    Fractional   3.10
     29 x          0.492476      0.498388     0.005912    Fractional   1.20
     29 y          0.241804      0.267612     0.025807    Fractional  10.67
     29 z          0.495580      0.477162     0.018418    Fractional   3.72
     30 x          0.011375      0.021887     0.010513    Fractional  92.42
     30 y          0.506898      0.514107     0.007209    Fractional   1.42
     30 z          0.248431      0.225328     0.023103    Fractional   9.30
     31 x          0.502476      0.504577     0.002101    Fractional   0.42
     31 y          0.766350      0.738550     0.027801    Fractional   3.63
     31 z          0.501221      0.488432     0.012789    Fractional   2.55
     32 x          0.755584      0.771093     0.015509    Fractional   2.05
     32 y          0.505899      0.508338     0.002439    Fractional   0.48
     32 z          0.991791      0.963167     0.028624    Fractional   2.89
     33 x          0.999039      0.996328     0.002711    Fractional   0.27
     33 y          0.010210      0.025201     0.014992    Fractional 146.84
     33 z          0.744903      0.724399     0.020504    Fractional   2.75
     34 x          0.000607      0.005331     0.004724    Fractional 778.50
     34 y          0.262645      0.275871     0.013225    Fractional   5.04
     34 z          0.992180      0.961416     0.030763    Fractional   3.10
     35 x          0.496003      0.493953     0.002050    Fractional   0.41
     35 y          0.504759      0.514240     0.009481    Fractional   1.88
     35 z          0.259065      0.240495     0.018570    Fractional   7.17
     36 x          0.239349      0.234966     0.004383    Fractional   1.83
     36 y          0.997223      0.010642     0.013419    Fractional   1.35
     36 z          0.507149      0.499612     0.007537    Fractional   1.49
     37 x          0.262071      0.277798     0.015727    Fractional   6.00
     37 y          0.752082      0.772815     0.020733    Fractional   2.76
     37 z          0.750094      0.733493     0.016600    Fractional   2.21
     38 x          0.509171      0.525463     0.016292    Fractional   3.20
     38 y          0.000473      0.009367     0.008893    Fractional1878.29
     38 z          0.242610      0.218890     0.023720    Fractional   9.78
     39 x          0.743464      0.741456     0.002008    Fractional   0.27
     39 y          0.266176      0.278243     0.012067    Fractional   4.53
     39 z          0.244981      0.224507     0.020474    Fractional   8.36
     40 x          0.993918      0.992417     0.001501    Fractional   0.15
     40 y          0.493406      0.494760     0.001353    Fractional   0.27
     40 z          0.748846      0.717577     0.031269    Fractional   4.18
     41 x          0.259490      0.255844     0.003646    Fractional   1.41
     41 y          0.498996      0.502556     0.003561    Fractional   0.71
     41 z          0.492075      0.470053     0.022022    Fractional   4.48
     42 x          0.739329      0.753095     0.013766    Fractional   1.86
     42 y          0.007020      0.021679     0.014658    Fractional 208.80
     42 z          0.006885      0.992407     0.014478    Fractional   1.44
     43 x          0.250690      0.254346     0.003656    Fractional   1.46
     43 y          0.514304      0.524120     0.009816    Fractional   1.91
     43 z          0.009449      0.000285     0.009165    Fractional   0.91
     44 x          0.994265      0.990388     0.003877    Fractional   0.39
     44 y          0.999715      0.006509     0.006793    Fractional   0.68
     44 z          0.262402      0.253749     0.008652    Fractional   3.30
     45 x          0.510055      0.518041     0.007986    Fractional   1.57
     45 y          0.500756      0.498985     0.001771    Fractional   0.35
     45 z          0.746492      0.737364     0.009128    Fractional   1.22
     46 x          0.756382      0.765292     0.008909    Fractional   1.18
     46 y          0.993684      0.997675     0.003990    Fractional   0.40
     46 z          0.496818      0.481633     0.015185    Fractional   3.06
     47 x          0.004834      0.004564     0.000270    Fractional   0.03
     47 y          0.239508      0.243642     0.004133    Fractional   1.73
     47 z          0.514741      0.497611     0.017131    Fractional   3.33
     48 x          0.506158      0.532832     0.026674    Fractional   5.27
     48 y          0.763849      0.781086     0.017237    Fractional   2.26
     48 z          0.003670      0.986546     0.017123    Fractional   1.71
     49 x          0.509439      0.523205     0.013765    Fractional   2.70
     49 y          0.244668      0.245049     0.000381    Fractional   0.16
     49 z          0.008775      0.987542     0.021233    Fractional   2.10
     50 x          0.001008      0.005169     0.004161    Fractional 412.71
     50 y          0.759481      0.774594     0.015113    Fractional   1.99
     50 z          0.499958      0.484186     0.015772    Fractional   3.15
     51 x          0.760412      0.768599     0.008187    Fractional   1.08
     51 y          0.262948      0.270462     0.007514    Fractional   2.86
     51 z          0.756628      0.738719     0.017909    Fractional   2.37
     52 x          0.257200      0.260049     0.002850    Fractional   1.11
     52 y          0.738445      0.739201     0.000756    Fractional   0.10
     52 z          0.257330      0.242842     0.014488    Fractional   5.63
     53 x          0.749812      0.758504     0.008692    Fractional   1.16
     53 y          0.736843      0.723291     0.013551    Fractional   1.84
     53 z          0.251247      0.248538     0.002709    Fractional   1.08
     54 x          0.243473      0.244970     0.001496    Fractional   0.61
     54 y          0.245076      0.257120     0.012044    Fractional   4.91
     54 z          0.744592      0.721213     0.023379    Fractional   3.14
     55 x          0.259539      0.276404     0.016865    Fractional   6.50
     55 y          0.262561      0.292498     0.029937    Fractional  11.40
     55 z          0.251792      0.241322     0.010470    Fractional   4.16
     56 x          0.744173      0.739974     0.004198    Fractional   0.56
     56 y          0.510149      0.514135     0.003987    Fractional   0.78
     56 z          0.511651      0.514055     0.002404    Fractional   0.47
     57 x          0.499371      0.516596     0.017224    Fractional   3.45
     57 y          0.999408      0.008704     0.009295    Fractional   0.93
     57 z          0.757095      0.757863     0.000768    Fractional   0.10
     58 x          0.002459      0.002969     0.000510    Fractional  20.74
     58 y          0.746977      0.742884     0.004093    Fractional   0.55
     58 z          0.010801      0.004630     0.006171    Fractional  57.13
     59 x          0.261338      0.298052     0.036714    Fractional  14.05
     59 y          0.996869      0.997678     0.000810    Fractional   0.08
     59 z          0.995090      0.964249     0.030841    Fractional   3.10
     60 x          0.745713      0.743858     0.001855    Fractional   0.25
     60 y          0.741784      0.725172     0.016612    Fractional   2.24
     60 z          0.755407      0.732444     0.022963    Fractional   3.04
     61 x          0.492476      0.496996     0.004520    Fractional   0.92
     61 y          0.241804      0.266316     0.024511    Fractional  10.14
     61 z          0.495580      0.476733     0.018847    Fractional   3.80
     62 x          0.011375      0.031776     0.020402    Fractional 179.36
     62 y          0.506898      0.516254     0.009356    Fractional   1.85
     62 z          0.248431      0.222554     0.025877    Fractional  10.42
     63 x          0.502476      0.505716     0.003240    Fractional   0.64
     63 y          0.766350      0.735639     0.030711    Fractional   4.01
     63 z          0.501221      0.488864     0.012358    Fractional   2.47
     64 x          0.755584      0.774136     0.018552    Fractional   2.46
     64 y          0.505899      0.506880     0.000981    Fractional   0.19
     64 z          0.991791      0.949656     0.042134    Fractional   4.25
     65 x          0.999039      0.999647     0.000608    Fractional   0.06
     65 y          0.010210      0.038819     0.028609    Fractional 280.22
     65 z          0.744903      0.712163     0.032740    Fractional   4.40
     66 x          0.000607      0.000955     0.000348    Fractional  57.33
     66 y          0.262645      0.278565     0.015920    Fractional   6.06
     66 z          0.992180      0.944892     0.047288    Fractional   4.77
     67 x          0.496003      0.482100     0.013903    Fractional   2.80
     67 y          0.504759      0.514231     0.009472    Fractional   1.88
     67 z          0.259065      0.243582     0.015483    Fractional   5.98
     68 x          0.239349      0.220989     0.018360    Fractional   7.67
     68 y          0.997223      0.012206     0.014983    Fractional   1.50
     68 z          0.507149      0.502694     0.004455    Fractional   0.88
     69 x          0.262071      0.281895     0.019824    Fractional   7.56
     69 y          0.752082      0.777147     0.025065    Fractional   3.33
     69 z          0.750094      0.733063     0.017031    Fractional   2.27
     70 x          0.509171      0.528932     0.019761    Fractional   3.88
     70 y          0.000473      0.009963     0.009489    Fractional2004.20
     70 z          0.242610      0.205637     0.036973    Fractional  15.24
     71 x          0.743464      0.738912     0.004552    Fractional   0.61
     71 y          0.266176      0.278528     0.012352    Fractional   4.64
     71 z          0.244981      0.220207     0.024774    Fractional  10.11
     72 x          0.993918      0.980354     0.013564    Fractional   1.36
     72 y          0.493406      0.481178     0.012229    Fractional   2.48
     72 z          0.748846      0.721952     0.026894    Fractional   3.59
     73 x          0.259490      0.260257     0.000767    Fractional   0.30
     73 y          0.498996      0.503960     0.004965    Fractional   0.99
     73 z          0.492075      0.457016     0.035059    Fractional   7.12
     74 x          0.739329      0.739900     0.000571    Fractional   0.08
     74 y          0.007020      0.021296     0.014276    Fractional 203.35
     74 z          0.006885      0.995547     0.011338    Fractional   1.13
     75 x          0.250690      0.253294     0.002604    Fractional   1.04
     75 y          0.514304      0.521536     0.007231    Fractional   1.41
     75 z          0.009449      0.010083     0.000634    Fractional   6.71
     76 x          0.994265      0.985425     0.008840    Fractional   0.89
     76 y          0.999715      0.003178     0.003463    Fractional   0.35
     76 z          0.262402      0.269474     0.007072    Fractional   2.70
     77 x          0.510055      0.530497     0.020441    Fractional   4.01
     77 y          0.500756      0.499537     0.001219    Fractional   0.24
     77 z          0.746492      0.736539     0.009953    Fractional   1.33
     78 x          0.756382      0.775935     0.019553    Fractional   2.59
     78 y          0.993684      0.998903     0.005219    Fractional   0.53
     78 z          0.496818      0.481500     0.015318    Fractional   3.08
     79 x          0.004834      0.007008     0.002174    Fractional  44.98
     79 y          0.239508      0.231127     0.008381    Fractional   3.50
     79 z          0.514741      0.511129     0.003613    Fractional   0.70
     80 x          0.506158      0.533751     0.027593    Fractional   5.45
     80 y          0.763849      0.795343     0.031494    Fractional   4.12
     80 z          0.003670      0.986367     0.017303    Fractional   1.72
     81 x          0.509439      0.521509     0.012070    Fractional   2.37
     81 y          0.244668      0.234162     0.010506    Fractional   4.29
     81 z          0.008775      0.986752     0.022023    Fractional   2.18
     82 x          0.001008      0.005519     0.004511    Fractional 447.51
     82 y          0.759481      0.789850     0.030369    Fractional   4.00
     82 z          0.499958      0.481461     0.018497    Fractional   3.70
     83 x          0.760412      0.778059     0.017646    Fractional   2.32
     83 y          0.262948      0.280719     0.017771    Fractional   6.76
     83 z          0.756628      0.737743     0.018885    Fractional   2.50
     84 x          0.257200      0.259876     0.002677    Fractional   1.04
     84 y          0.738445      0.725239     0.013206    Fractional   1.79
     84 z          0.257330      0.243130     0.014199    Fractional   5.52
     85 x          0.749812      0.758462     0.008650    Fractional   1.15
     85 y          0.736843      0.721839     0.015003    Fractional   2.04
     85 z          0.251247      0.251595     0.000348    Fractional   0.14
     86 x          0.243473      0.231792     0.011681    Fractional   4.80
     86 y          0.245076      0.257144     0.012067    Fractional   4.92
     86 z          0.744592      0.722862     0.021730    Fractional   2.92

  Time to end of optimisation =       2.0098 seconds

  Timing analysis for GULP :

  Task / Subroutine                                          Time (Seconds)
  Calculation of reciprocal space energy and derivatives          0.1261
  Calculation of real space energy and derivatives                1.8466
  Calculation and manipulation of Hessian matrix                  0.0005
  Calculation of matrix inversion                                 0.0152
  Symmetry generation of equivalent positions                     0.0001

  Dump file written as halospinel.grs

  Job Finished at 13:58.13 26th July       2022