  Job Started  at 17:19.19  7th February   2022

  Number of CPUs =     1

  Total number of configurations input =      1

*  Input for Configuration =   1                                               *

  Formula = Sc2Cl6

  Number of irreducible atoms/shells =      14

  Total number atoms/shells =      14

  Dimensionality = 3               :  Bulk

  Cartesian lattice vectors (Angstroms) :

        7.453000    0.000000    0.000000
        4.624520    5.844744    0.000000
        4.624520    2.237970    5.399307

  Cell parameters (Angstroms/Degrees):

  a =       7.4530    alpha =  51.6480
  b =       7.4530    beta  =  51.6480
  c =       7.4530    gamma =  51.6480

  Initial cell volume =         235.198534 Angs**3

  Temperature of configuration =   0.00     K

  Pressure of configuration =         0.000 GPa

  Fractional coordinates of asymmetric unit :

   No.  Atomic       x           y          z         Charge      Occupancy
        Label      (Frac)      (Frac)     (Frac)        (e)         (Frac)
      1 Sc    c    0.333900    0.333900    0.333900     3.00000    1.000000
      2 Sc    c    0.666100 *  0.666100 *  0.666100 *   3.00000    1.000000
      3 Cl    c    0.073700 *  0.443900 *  0.705300 *   1.48500    1.000000
      4 Cl    c    0.294700 *  0.926300 *  0.556100 *   1.48500    1.000000
      5 Cl    c    0.443900 *  0.705300 *  0.073700 *   1.48500    1.000000
      6 Cl    c    0.556100 *  0.294700 *  0.926300 *   1.48500    1.000000
      7 Cl    c    0.705300 *  0.073700 *  0.443900 *   1.48500    1.000000
      8 Cl    c    0.926300 *  0.556100 *  0.294700 *   1.48500    1.000000
      9 Cl    s    0.073700 *  0.443900 *  0.705300 *  -2.48500    1.000000
     10 Cl    s    0.294700 *  0.926300 *  0.556100 *  -2.48500    1.000000
     11 Cl    s    0.443900 *  0.705300 *  0.073700 *  -2.48500    1.000000
     12 Cl    s    0.556100 *  0.294700 *  0.926300 *  -2.48500    1.000000
     13 Cl    s    0.705300 *  0.073700 *  0.443900 *  -2.48500    1.000000
     14 Cl    s    0.926300 *  0.556100 *  0.294700 *  -2.48500    1.000000

*  General input information                                                   *

  Species output for all configurations :

  Species    Type    Atomic    Atomic    Charge       Radii (Angs)     Library
                     Number     Mass       (e)     Cova   Ionic  VDW   Symbol
    Sc       Core       21      44.96   3.000000   1.440  0.000  2.150
    Cl       Core       17      35.45   1.485000   0.990  0.000  1.650
    Cl       Shell      17       0.00  -2.485000   0.990  0.000  1.650

  Lattice summation method               =    Ewald          (3-D)
                                         =    Parry          (2-D)
                                         =    Saunders et al (1-D)
  Accuracy factor for lattice sums       =   12.000

  Analytic derivatives to be used

  Time limit = Infinity

  Maximum range for interatomic potentials =    100000.000000 Angstroms

  General interatomic potentials :

Atom  Types   Potential      Parameter       Value         Units   Cutoffs(Ang)
  1     2                                                            Min /  Max
Cl   c Cl   s Spring (c-s)  Spring k 2       29.380000    eV*Ang^-2 0.000  0.800
                            Spring k 4       0.0000000    eV*Ang^-4
Sc   c Cl   s Buckingham    Buckingham A     1736.1200    eV        0.000 12.000
                            Buckingham rho  0.29270000    Ang
                            Buckingham C     0.0000000    eV*Ang^6
Cl   s Cl   s Buckingham    Buckingham A     1227.2000    eV        0.000 12.000
                            Buckingham rho  0.32100000    Ang
                            Buckingham C     14.530000    eV*Ang^6

  Number of variables   =   21
  Number of observables =   45

   Observable no.  Type           Observable    Weight       Reference  Confign
          1        Derivative        0.000000        1.0000    2 x         1
          2        Derivative        0.000000        1.0000    2 y         1
          3        Derivative        0.000000        1.0000    2 z         1
          4        Derivative        0.000000        1.0000    3 x         1
          5        Derivative        0.000000        1.0000    3 y         1
          6        Derivative        0.000000        1.0000    3 z         1
          7        Derivative        0.000000        1.0000    4 x         1
          8        Derivative        0.000000        1.0000    4 y         1
          9        Derivative        0.000000        1.0000    4 z         1
         10        Derivative        0.000000        1.0000    5 x         1
         11        Derivative        0.000000        1.0000    5 y         1
         12        Derivative        0.000000        1.0000    5 z         1
         13        Derivative        0.000000        1.0000    6 x         1
         14        Derivative        0.000000        1.0000    6 y         1
         15        Derivative        0.000000        1.0000    6 z         1
         16        Derivative        0.000000        1.0000    7 x         1
         17        Derivative        0.000000        1.0000    7 y         1
         18        Derivative        0.000000        1.0000    7 z         1
         19        Derivative        0.000000        1.0000    8 x         1
         20        Derivative        0.000000        1.0000    8 y         1
         21        Derivative        0.000000        1.0000    8 z         1
         22        Derivative        0.000000        1.0000    9 x         1
         23        Derivative        0.000000        1.0000    9 y         1
         24        Derivative        0.000000        1.0000    9 z         1
         25        Derivative        0.000000        1.0000   10 x         1
         26        Derivative        0.000000        1.0000   10 y         1
         27        Derivative        0.000000        1.0000   10 z         1
         28        Derivative        0.000000        1.0000   11 x         1
         29        Derivative        0.000000        1.0000   11 y         1
         30        Derivative        0.000000        1.0000   11 z         1
         31        Derivative        0.000000        1.0000   12 x         1
         32        Derivative        0.000000        1.0000   12 y         1
         33        Derivative        0.000000        1.0000   12 z         1
         34        Derivative        0.000000        1.0000   13 x         1
         35        Derivative        0.000000        1.0000   13 y         1
         36        Derivative        0.000000        1.0000   13 z         1
         37        Derivative        0.000000        1.0000   14 x         1
         38        Derivative        0.000000        1.0000   14 y         1
         39        Derivative        0.000000        1.0000   14 z         1
         40        Derivative        0.000000        1.0000    a           1
         41        Derivative        0.000000        1.0000    b           1
         42        Derivative        0.000000        1.0000    c           1
         43        Derivative        0.000000        1.0000    alpha       1
         44        Derivative        0.000000        1.0000    beta        1
         45        Derivative        0.000000        1.0000    gamma       1

  Variables :

     Parameter No.       Parameter Value          Parameter Type  Species
             1                 29.380000          Spring k 2
             2               1736.120000          Buckingham A
             3                  0.292700          Buckingham rho
             4                  0.073700          Shell position    1   9 x
             5                  0.443900          Shell position    1   9 y
             6                  0.705300          Shell position    1   9 z
             7                  0.294700          Shell position    1  10 x
             8                  0.926300          Shell position    1  10 y
             9                  0.556100          Shell position    1  10 z
            10                  0.443900          Shell position    1  11 x
            11                  0.705300          Shell position    1  11 y
            12                  0.073700          Shell position    1  11 z
            13                  0.556100          Shell position    1  12 x
            14                  0.294700          Shell position    1  12 y
            15                  0.926300          Shell position    1  12 z
            16                  0.705300          Shell position    1  13 x
            17                  0.073700          Shell position    1  13 y
            18                  0.443900          Shell position    1  13 z
            19                  0.926300          Shell position    1  14 x
            20                  0.556100          Shell position    1  14 y
            21                  0.294700          Shell position    1  14 z

  Simultaneous optimisation will be performed during fitting
  First derivatives of residuals to be used in fitting

  Maximum no. of cycles   =       5000
  Maximum step size       =  1000.0000
  Tolerance on parameters =  0.0000100
  Tolerance on function   =  0.0000100
  Tolerance on gradient   =  0.0001000
  Differencing interval   =  0.0001000

  Start of fitting :

  ** Hessian calculated **
  ** Hessian calculated **
  ** Hessian calculated **
  ** Hessian calculated **
  ** Hessian calculated **
  ** Hessian calculated **
  ** Hessian calculated **
  ** Hessian calculated **
  ** Hessian calculated **
  ** Hessian calculated **
  ** Hessian calculated **
  ** Hessian calculated **
  ** Hessian calculated **

  **** Fit completed successfully ****

  Final sum of squares =             0.435499

  Final gradient norm  =             6.007940

  Final values of parameters :

 Parameter No.    Parameter        Parameter      Parameter Type  Species
                  Original         Final
         1             29.380000        36.068621 Spring k 2
         2           1736.120000      2456.224606 Buckingham A
         3              0.292700         0.314655 Buckingham rho
         4              0.073700         0.064615 Shell position    1   9 x
         5              0.443900         0.451005 Shell position    1   9 y
         6              0.705300         0.678507 Shell position    1   9 z
         7              0.294700         0.321529 Shell position    1  10 x
         8              0.926300         0.935380 Shell position    1  10 y
         9              0.556100         0.548950 Shell position    1  10 z
        10              0.443900         0.451004 Shell position    1  11 x
        11              0.705300         0.678506 Shell position    1  11 y
        12              0.073700         0.064616 Shell position    1  11 z
        13              0.556100         0.548951 Shell position    1  12 x
        14              0.294700         0.321528 Shell position    1  12 y
        15              0.926300         0.935380 Shell position    1  12 z
        16              0.705300         0.678506 Shell position    1  13 x
[...]

  Final values of residuals :

   Observable no.  Type            Observable   Calculated    Residual  Error(%)
          1        Derivative         0.00000     -0.34739      0.12068
          2        Derivative         0.00000     -0.34727      0.12060
          3        Derivative         0.00000     -0.34741      0.12070
          4        Derivative         0.00000     -0.01032      0.00011
          5        Derivative         0.00000      0.01017      0.00010
          6        Derivative         0.00000      0.02597      0.00067
          7        Derivative         0.00000     -0.03406      0.00116
          8        Derivative         0.00000      0.02997      0.00090
          9        Derivative         0.00000      0.03858      0.00149
         10        Derivative         0.00000      0.01056      0.00011
         11        Derivative         0.00000      0.02628      0.00069
         12        Derivative         0.00000     -0.01125      0.00013
         13        Derivative         0.00000      0.03835      0.00147
         14        Derivative         0.00000     -0.03367      0.00113
         15        Derivative         0.00000      0.03008      0.00090
         16        Derivative         0.00000      0.02625      0.00069
         17        Derivative         0.00000     -0.01122      0.00013
         18        Derivative         0.00000      0.01038      0.00011
         19        Derivative         0.00000      0.02933      0.00086
         20        Derivative         0.00000      0.03894      0.00152
         21        Derivative         0.00000     -0.03342      0.00112
         22        Derivative         0.00000      0.06053      0.00366
         23        Derivative         0.00000     -0.08575      0.00735
         24        Derivative         0.00000     -0.01694      0.00029
         25        Derivative         0.00000      0.02314      0.00054
         26        Derivative         0.00000     -0.08665      0.00751
         27        Derivative         0.00000      0.02460      0.00060
         28        Derivative         0.00000     -0.08611      0.00741
         29        Derivative         0.00000     -0.01724      0.00030
         30        Derivative         0.00000      0.06145      0.00378
         31        Derivative         0.00000      0.02489      0.00062
         32        Derivative         0.00000      0.02273      0.00052
         33        Derivative         0.00000     -0.08675      0.00753
         34        Derivative         0.00000     -0.01720      0.00030
         35        Derivative         0.00000      0.06142      0.00377
         36        Derivative         0.00000     -0.08595      0.00739
         37        Derivative         0.00000     -0.08605      0.00741
         38        Derivative         0.00000      0.02427      0.00059
         39        Derivative         0.00000      0.02250      0.00051
         40        Derivative         0.00000     -0.01104      0.00012
         41        Derivative         0.00000     -0.00154      0.00000
         42        Derivative         0.00000     -0.00001      0.00000
         43        Derivative         0.00000     -0.00203      0.00000
         44        Derivative         0.00000     -0.00405      0.00002
         45        Derivative         0.00000     -0.00612      0.00004

  Comparison of initial and final observables :

   Observable no.  Type            Observable   Initial       Final
          1        Derivative         0.00000     -0.13978     -0.34739
          2        Derivative         0.00000     -0.14823     -0.34727
          3        Derivative         0.00000     -0.15190     -0.34741
          4        Derivative         0.00000    -55.93930     -0.01032
          5        Derivative         0.00000    -43.32978      0.01017
          6        Derivative         0.00000    -70.01709      0.02597
          7        Derivative         0.00000     70.01298     -0.03406
          8        Derivative         0.00000     55.93678      0.02997
          9        Derivative         0.00000     43.32753      0.03858
         10        Derivative         0.00000    -43.32898      0.01056
         11        Derivative         0.00000    -70.01287      0.02628
         12        Derivative         0.00000    -55.93651     -0.01125
         13        Derivative         0.00000     43.32890      0.03835
         14        Derivative         0.00000     70.01298     -0.03367
         15        Derivative         0.00000     55.93536      0.03008
         16        Derivative         0.00000    -70.01287      0.02625
         17        Derivative         0.00000    -55.93792     -0.01122
         18        Derivative         0.00000    -43.32797      0.01038
         19        Derivative         0.00000     55.96373      0.02933
         20        Derivative         0.00000     43.35516      0.03894
         21        Derivative         0.00000     70.05751     -0.03342
         22        Derivative         0.00000     84.71592      0.06053
         23        Derivative         0.00000     66.22647     -0.08575
         24        Derivative         0.00000    105.36707     -0.01694
         25        Derivative         0.00000   -105.35972      0.02314
         26        Derivative         0.00000    -84.71137     -0.08665
         27        Derivative         0.00000    -66.22244      0.02460
         28        Derivative         0.00000     66.22493     -0.08611
         29        Derivative         0.00000    105.35955     -0.01724
         30        Derivative         0.00000     84.71090      0.06145
         31        Derivative         0.00000    -66.22484      0.02489
         32        Derivative         0.00000   -105.35972      0.02273
         33        Derivative         0.00000    -84.70888     -0.08675
         34        Derivative         0.00000    105.35955     -0.01720
         35        Derivative         0.00000     84.71333      0.06142
         36        Derivative         0.00000     66.22323     -0.08595
         37        Derivative         0.00000    -84.73760     -0.08605
         38        Derivative         0.00000    -66.24900      0.02427
         39        Derivative         0.00000   -105.40133      0.02250
         40        Derivative         0.00000     31.59823     -0.01104
         41        Derivative         0.00000     15.05244     -0.00154
         42        Derivative         0.00000     12.25348     -0.00001
         43        Derivative         0.00000      3.37702     -0.00203
         44        Derivative         0.00000      6.98521     -0.00405
         45        Derivative         0.00000     10.45550     -0.00612

  Maximum range for interatomic potentials =    100000.000000 Angstroms

  General interatomic potentials :

Atom  Types   Potential      Parameter       Value         Units   Cutoffs(Ang)
  1     2                                                            Min /  Max
Cl   c Cl   s Spring (c-s)  Spring k 2       36.068621    eV*Ang^-2 0.000  0.800
                            Spring k 4       0.0000000    eV*Ang^-4
Sc   c Cl   s Buckingham    Buckingham A     2456.2246    eV        0.000 12.000
                            Buckingham rho  0.31465459    Ang
                            Buckingham C     0.0000000    eV*Ang^6
Cl   s Cl   s Buckingham    Buckingham A     1227.2000    eV        0.000 12.000
                            Buckingham rho  0.32100000    Ang
                            Buckingham C     14.530000    eV*Ang^6

  Total time to end of fitting =      32.4472 seconds

*  Output for configuration   1                                                *

  Components of energy :

  Interatomic potentials     =          21.34708634 eV
  Monopole - monopole (real) =          81.62277464 eV
  Monopole - monopole (recip)=        -197.17204434 eV
  Monopole - monopole (total)=        -115.54926970 eV
  Total lattice energy       =         -94.20218337 eV
  Total lattice energy       =           -9089.0707 kJ/(mole unit cells)

  Number of variables =       45

  Maximum number of calculations  =          1000
  Maximum Hessian update interval =            10
  Maximum step size               =   1.000000000
  Maximum parameter tolerance     =   0.000010000
  Maximum function  tolerance     =   0.000010000
  Maximum gradient  tolerance     =   0.001000000
  Maximum gradient  component     =   0.010000000

  Cell parameters to be optimised using strains

  Newton-Raphson optimiser to be used

  BFGS hessian update to be used

  Lower half triangular hessian to be used

  Start of bulk optimisation :

  ** Hessian calculated **

  **** Optimisation achieved ****

  Final energy =     -94.20345443 eV
  Final Gnorm  =       0.00007895

  Components of energy :

  Interatomic potentials     =          21.33244884 eV
  Monopole - monopole (real) =          81.08173629 eV
  Monopole - monopole (recip)=        -196.61763956 eV
  Monopole - monopole (total)=        -115.53590328 eV
  Total lattice energy       =         -94.20345443 eV
  Total lattice energy       =           -9089.1933 kJ/(mole unit cells)

  Final fractional coordinates of atoms :

   No.  Atomic        x           y          z          Radius
        Label       (Frac)      (Frac)     (Frac)       (Angs)
     1  Sc    c     0.333900    0.333900    0.333900    0.000000
     2  Sc    c     0.667800    0.667800    0.667800    0.000000
     3  Cl    c     0.075403    0.445578    0.703527    0.000000
     4  Cl    c     0.298174    0.926297    0.556121    0.000000
     5  Cl    c     0.445578    0.703526    0.075403    0.000000
     6  Cl    c     0.556122    0.298173    0.926296    0.000000
     7  Cl    c     0.703526    0.075403    0.445578    0.000000
     8  Cl    c     0.926297    0.556122    0.298173    0.000000
     9  Cl    s     0.065697    0.452744    0.677367    0.000000
    10  Cl    s     0.324333    0.936002    0.548955    0.000000
    11  Cl    s     0.452744    0.677367    0.065698    0.000000
    12  Cl    s     0.548956    0.324333    0.936002    0.000000
    13  Cl    s     0.677367    0.065697    0.452744    0.000000
    14  Cl    s     0.936002    0.548956    0.324332    0.000000

  Final Cartesian lattice vectors (Angstroms) :

        7.494831    0.017799    0.011886
        4.664434    5.866501    0.011885
        4.664431    2.257283    5.414848

  Final cell parameters and derivatives :

       a            7.494862 Angstrom     dE/de1(xx)     0.000549 eV/strain
       b            7.494859 Angstrom     dE/de2(yy)     0.000407 eV/strain
       c            7.494853 Angstrom     dE/de3(zz)     0.000395 eV/strain
       alpha       51.375809 Degrees      dE/de4(yz)     0.000029 eV/strain
       beta        51.375800 Degrees      dE/de5(xz)     0.000058 eV/strain
       gamma       51.375779 Degrees      dE/de6(xy)     0.000090 eV/strain

  Primitive cell volume =           237.232669 Angs**3

  Density of cell =      2.118259 g/cm**3

  Non-primitive cell volume =           237.232669 Angs**3

  Final internal derivatives :

   No.  Atomic          a             b             c           Radius
        Label          (eV)          (eV)          (eV)        (eV/Angs)
      1 Sc    c       0.000000      0.000000      0.000000      0.000000
      2 Sc    c      -0.000452     -0.000451     -0.000480      0.000000
      3 Cl    c      -0.000017     -0.000330     -0.000232      0.000000
      4 Cl    c       0.000254      0.000034      0.000313      0.000000
      5 Cl    c      -0.000319     -0.000208     -0.000005      0.000000
      6 Cl    c       0.000302      0.000229      0.000009      0.000000
      7 Cl    c      -0.000232     -0.000029     -0.000329      0.000000
      8 Cl    c       0.000020      0.000312      0.000253      0.000000
      9 Cl    s       0.000621      0.000733      0.000899      0.000000
     10 Cl    s      -0.000923     -0.000637     -0.000711      0.000000
     11 Cl    s       0.000729      0.000884      0.000617      0.000000
     12 Cl    s      -0.000710     -0.000911     -0.000627      0.000000
     13 Cl    s       0.000895      0.000627      0.000729      0.000000
     14 Cl    s      -0.000630     -0.000714     -0.000926      0.000000
  Maximum abs         0.000923      0.000911      0.000926      0.000000

  Comparison of initial and final structures :

  Parameter   Initial value   Final value   Difference    Units      Percent
    Volume       235.198534    237.232669     2.034134    Angs**3      0.86
    a              7.453000      7.494862     0.041862    Angstroms    0.56
    b              7.453000      7.494859     0.041859    Angstroms    0.56
    c              7.453000      7.494853     0.041853    Angstroms    0.56
    alpha         51.648000     51.375809    -0.272191    Degrees     -0.53
    beta          51.648000     51.375800    -0.272200    Degrees     -0.53
    gamma         51.648000     51.375779    -0.272221    Degrees     -0.53
      1 x          0.333900      0.333900     0.000000    Fractional   0.00
      1 y          0.333900      0.333900     0.000000    Fractional   0.00
      1 z          0.333900      0.333900     0.000000    Fractional   0.00
      2 x          0.666100      0.667800     0.001700    Fractional   0.26
      2 y          0.666100      0.667800     0.001700    Fractional   0.26
      2 z          0.666100      0.667800     0.001700    Fractional   0.26
      3 x          0.073700      0.075403     0.001703    Fractional   2.31
      3 y          0.443900      0.445578     0.001678    Fractional   0.38
      3 z          0.705300      0.703527     0.001773    Fractional   0.25
      4 x          0.294700      0.298174     0.003474    Fractional   1.18
      4 y          0.926300      0.926297     0.000003    Fractional   0.00
      4 z          0.556100      0.556121     0.000021    Fractional   0.00
      5 x          0.443900      0.445578     0.001678    Fractional   0.38
      5 y          0.705300      0.703526     0.001774    Fractional   0.25
      5 z          0.073700      0.075403     0.001703    Fractional   2.31
      6 x          0.556100      0.556122     0.000022    Fractional   0.00
      6 y          0.294700      0.298173     0.003473    Fractional   1.18
      6 z          0.926300      0.926296     0.000004    Fractional   0.00
      7 x          0.705300      0.703526     0.001774    Fractional   0.25
      7 y          0.073700      0.075403     0.001703    Fractional   2.31
      7 z          0.443900      0.445578     0.001678    Fractional   0.38
      8 x          0.926300      0.926297     0.000003    Fractional   0.00
      8 y          0.556100      0.556122     0.000022    Fractional   0.00
      8 z          0.294700      0.298173     0.003473    Fractional   1.18
      9 x          0.064615      0.065697     0.001082    Fractional   1.68
      9 y          0.451005      0.452744     0.001739    Fractional   0.39
      9 z          0.678507      0.677367     0.001140    Fractional   0.17
     10 x          0.321529      0.324333     0.002804    Fractional   0.87
     10 y          0.935380      0.936002     0.000623    Fractional   0.07
     10 z          0.548950      0.548955     0.000005    Fractional   0.00
     11 x          0.451004      0.452744     0.001740    Fractional   0.39
     11 y          0.678506      0.677367     0.001140    Fractional   0.17
     11 z          0.064616      0.065698     0.001082    Fractional   1.67
     12 x          0.548951      0.548956     0.000005    Fractional   0.00
     12 y          0.321528      0.324333     0.002805    Fractional   0.87
     12 z          0.935380      0.936002     0.000622    Fractional   0.07
     13 x          0.678506      0.677367     0.001140    Fractional   0.17
     13 y          0.064616      0.065697     0.001081    Fractional   1.67
     13 z          0.451004      0.452744     0.001740    Fractional   0.39
     14 x          0.935381      0.936002     0.000622    Fractional   0.07
     14 y          0.548950      0.548956     0.000006    Fractional   0.00
     14 z          0.321528      0.324332     0.002804    Fractional   0.87

  Time to end of optimisation =      32.4815 seconds

  Timing analysis for GULP :

  Task / Subroutine                                          Time (Seconds)
  Calculation of reciprocal space energy and derivatives          1.0123
  Calculation of real space energy and derivatives               31.1695
  Sum of squares for fitting                                      0.2282
  Global summation overhead                                       0.0053

  Dump file written as ScCl3.grs

  Job Finished at 17:19.52  7th February   2022