  Job Started  at 16:05.50  4th April      2022

  Number of CPUs =     1

  Total number of configurations input =      1

*  Input for Configuration =   1                                               *

  Formula = Sc2Cl6

  Number of irreducible atoms/shells =      14

  Total number atoms/shells =      14

  Dimensionality = 3               :  Bulk

  Cartesian lattice vectors (Angstroms) :

        7.453100    0.000000    0.000000
        4.624571    5.844830    0.000000
        4.624571    2.238000    5.399388

  Cell parameters (Angstroms/Degrees):

  a =       7.4531    alpha =  51.6481
  b =       7.4531    beta  =  51.6481
  c =       7.4531    gamma =  51.6481

  Initial cell volume =         235.208707 Angs**3

  Temperature of configuration =   0.00     K

  Pressure of configuration =         0.000 GPa

  Fractional coordinates of asymmetric unit :

   No.  Atomic       x           y          z         Charge      Occupancy
        Label      (Frac)      (Frac)     (Frac)        (e)         (Frac)
      1 Sc    c    0.666064    0.666064    0.666064     3.00000    1.000000
      2 Sc    c    0.333936 *  0.333936 *  0.333936 *   3.00000    1.000000
      3 Cl    c    0.294736 *  0.926265 *  0.556066 *   1.48500    1.000000
      4 Cl    c    0.926265 *  0.556066 *  0.294736 *   1.48500    1.000000
      5 Cl    c    0.443934 *  0.705264 *  0.073735 *   1.48500    1.000000
      6 Cl    c    0.073735 *  0.443934 *  0.705264 *   1.48500    1.000000
      7 Cl    c    0.705264 *  0.073735 *  0.443934 *   1.48500    1.000000
      8 Cl    c    0.556066 *  0.294736 *  0.926265 *   1.48500    1.000000
      9 Cl    s    0.294736 *  0.926265 *  0.556066 *  -2.48500    1.000000
     10 Cl    s    0.926265 *  0.556066 *  0.294736 *  -2.48500    1.000000
     11 Cl    s    0.443934 *  0.705264 *  0.073735 *  -2.48500    1.000000
     12 Cl    s    0.073735 *  0.443934 *  0.705264 *  -2.48500    1.000000
     13 Cl    s    0.705264 *  0.073735 *  0.443934 *  -2.48500    1.000000
     14 Cl    s    0.556066 *  0.294736 *  0.926265 *  -2.48500    1.000000

*  General input information                                                   *

  Species output for all configurations :

  Species    Type    Atomic    Atomic    Charge       Radii (Angs)     Library
                     Number     Mass       (e)     Cova   Ionic  VDW   Symbol
    Sc       Core       21      44.96   3.000000   1.440  0.000  2.150
    Cl       Core       17      35.45   1.485000   0.990  0.000  1.650
    Cl       Shell      17       0.00  -2.485000   0.990  0.000  1.650

  Lattice summation method               =    Ewald          (3-D)
                                         =    Parry          (2-D)
                                         =    Saunders et al (1-D)
  Accuracy factor for lattice sums       =   12.000

  Analytic derivatives to be used

  Time limit = Infinity

  Maximum range for interatomic potentials =    100000.000000 Angstroms

  General interatomic potentials :

Atom  Types   Potential      Parameter       Value         Units   Cutoffs(Ang)
  1     2                                                            Min /  Max
Cl   c Cl   s Spring (c-s)  Spring k 2       29.380000    eV*Ang^-2 0.000  0.800
                            Spring k 4       0.0000000    eV*Ang^-4
Sc   c Cl   s Buckingham    Buckingham A     1736.1200    eV        0.000 12.000
                            Buckingham rho  0.29270000    Ang
                            Buckingham C     0.0000000    eV*Ang^6
Cl   s Cl   s Buckingham    Buckingham A     1227.2000    eV        0.000 12.000
                            Buckingham rho  0.32100000    Ang
                            Buckingham C     14.530000    eV*Ang^6

  Number of variables   =   21
  Number of observables =   45

   Observable no.  Type           Observable    Weight       Reference  Confign
          1        Derivative        0.000000        1.0000    2 x         1
          2        Derivative        0.000000        1.0000    2 y         1
          3        Derivative        0.000000        1.0000    2 z         1
          4        Derivative        0.000000        1.0000    3 x         1
          5        Derivative        0.000000        1.0000    3 y         1
          6        Derivative        0.000000        1.0000    3 z         1
          7        Derivative        0.000000        1.0000    4 x         1
          8        Derivative        0.000000        1.0000    4 y         1
          9        Derivative        0.000000        1.0000    4 z         1
         10        Derivative        0.000000        1.0000    5 x         1
         11        Derivative        0.000000        1.0000    5 y         1
         12        Derivative        0.000000        1.0000    5 z         1
         13        Derivative        0.000000        1.0000    6 x         1
         14        Derivative        0.000000        1.0000    6 y         1
         15        Derivative        0.000000        1.0000    6 z         1
         16        Derivative        0.000000        1.0000    7 x         1
         17        Derivative        0.000000        1.0000    7 y         1
         18        Derivative        0.000000        1.0000    7 z         1
         19        Derivative        0.000000        1.0000    8 x         1
         20        Derivative        0.000000        1.0000    8 y         1
         21        Derivative        0.000000        1.0000    8 z         1
         22        Derivative        0.000000        1.0000    9 x         1
         23        Derivative        0.000000        1.0000    9 y         1
         24        Derivative        0.000000        1.0000    9 z         1
         25        Derivative        0.000000        1.0000   10 x         1
         26        Derivative        0.000000        1.0000   10 y         1
         27        Derivative        0.000000        1.0000   10 z         1
         28        Derivative        0.000000        1.0000   11 x         1
         29        Derivative        0.000000        1.0000   11 y         1
         30        Derivative        0.000000        1.0000   11 z         1
         31        Derivative        0.000000        1.0000   12 x         1
         32        Derivative        0.000000        1.0000   12 y         1
         33        Derivative        0.000000        1.0000   12 z         1
         34        Derivative        0.000000        1.0000   13 x         1
         35        Derivative        0.000000        1.0000   13 y         1
         36        Derivative        0.000000        1.0000   13 z         1
         37        Derivative        0.000000        1.0000   14 x         1
         38        Derivative        0.000000        1.0000   14 y         1
         39        Derivative        0.000000        1.0000   14 z         1
         40        Derivative        0.000000        1.0000    a           1
         41        Derivative        0.000000        1.0000    b           1
         42        Derivative        0.000000        1.0000    c           1
         43        Derivative        0.000000        1.0000    alpha       1
         44        Derivative        0.000000        1.0000    beta        1
         45        Derivative        0.000000        1.0000    gamma       1

  Variables :

     Parameter No.       Parameter Value          Parameter Type  Species
             1                 29.380000          Spring k 2
             2               1736.120000          Buckingham A
             3                  0.292700          Buckingham rho
             4                  0.294736          Shell position    1   9 x
             5                  0.926265          Shell position    1   9 y
             6                  0.556066          Shell position    1   9 z
             7                  0.926265          Shell position    1  10 x
             8                  0.556066          Shell position    1  10 y
             9                  0.294736          Shell position    1  10 z
            10                  0.443934          Shell position    1  11 x
            11                  0.705264          Shell position    1  11 y
            12                  0.073735          Shell position    1  11 z
            13                  0.073735          Shell position    1  12 x
            14                  0.443934          Shell position    1  12 y
            15                  0.705264          Shell position    1  12 z
            16                  0.705264          Shell position    1  13 x
            17                  0.073735          Shell position    1  13 y
            18                  0.443934          Shell position    1  13 z
            19                  0.556066          Shell position    1  14 x
            20                  0.294736          Shell position    1  14 y
            21                  0.926265          Shell position    1  14 z

  Simultaneous optimisation will be performed during fitting
  First derivatives of residuals to be used in fitting

  Maximum no. of cycles   =       5000
  Maximum step size       =  1000.0000
  Tolerance on parameters =  0.0000100
  Tolerance on function   =  0.0000100
  Tolerance on gradient   =  0.0001000
  Differencing interval   =  0.0001000

  Start of fitting :

  ** Hessian calculated **
  ** Hessian calculated **
  ** Hessian calculated **
  ** Hessian calculated **
  ** Hessian calculated **
  ** Hessian calculated **
  ** Hessian calculated **
  ** Hessian calculated **
  ** Hessian calculated **
  ** Hessian calculated **
  ** Hessian calculated **
  ** Hessian calculated **
  ** Hessian calculated **
  ** Hessian calculated **
  ** Hessian calculated **
  ** Hessian calculated **
  ** Hessian calculated **
  ** Hessian calculated **
  ** Hessian calculated **
  ** Hessian calculated **

  **** Fit completed successfully ****

  Final sum of squares =             0.356953

  Final gradient norm  =             9.597594

  Final values of parameters :

 Parameter No.    Parameter        Parameter      Parameter Type  Species
                  Original         Final
         1             29.380000        36.015729 Spring k 2
         2           1736.120000      1832.280586 Buckingham A
         3              0.292700         0.329449 Buckingham rho
         4              0.294736         0.321578 Shell position    1   9 x
         5              0.926265         0.935325 Shell position    1   9 y
         6              0.556066         0.548972 Shell position    1   9 z
         7              0.926265         0.935321 Shell position    1  10 x
         8              0.556066         0.548974 Shell position    1  10 y
         9              0.294736         0.321581 Shell position    1  10 z
        10              0.443934         0.451072 Shell position    1  11 x
        11              0.705264         0.678388 Shell position    1  11 y
        12              0.073735         0.064676 Shell position    1  11 z
        13              0.073735         0.064680 Shell position    1  12 x
[...]

  Final values of residuals :

   Observable no.  Type            Observable   Calculated    Residual  Error(%)
          1        Derivative         0.00000      0.30971      0.09592
          2        Derivative         0.00000      0.30974      0.09594
          3        Derivative         0.00000      0.30926      0.09564
          4        Derivative         0.00000     -0.02590      0.00067
          5        Derivative         0.00000      0.01436      0.00021
          6        Derivative         0.00000     -0.00678      0.00005
          7        Derivative         0.00000      0.01706      0.00029
          8        Derivative         0.00000     -0.00811      0.00007
          9        Derivative         0.00000     -0.02825      0.00080
         10        Derivative         0.00000     -0.03817      0.00146
         11        Derivative         0.00000      0.03621      0.00131
         12        Derivative         0.00000     -0.02797      0.00078
         13        Derivative         0.00000     -0.03022      0.00091
         14        Derivative         0.00000     -0.03721      0.00138
         15        Derivative         0.00000      0.03799      0.00144
         16        Derivative         0.00000      0.03735      0.00140
         17        Derivative         0.00000     -0.03022      0.00091
         18        Derivative         0.00000     -0.03727      0.00139
         19        Derivative         0.00000     -0.00675      0.00005
         20        Derivative         0.00000     -0.02890      0.00084
         21        Derivative         0.00000      0.01657      0.00027
         22        Derivative         0.00000      0.01046      0.00011
         23        Derivative         0.00000     -0.05873      0.00345
         24        Derivative         0.00000      0.08372      0.00701
         25        Derivative         0.00000     -0.06123      0.00375
         26        Derivative         0.00000      0.08471      0.00717
         27        Derivative         0.00000      0.01293      0.00017
         28        Derivative         0.00000     -0.02698      0.00073
         29        Derivative         0.00000     -0.01907      0.00036
         30        Derivative         0.00000      0.07787      0.00606
         31        Derivative         0.00000      0.08000      0.00640
         32        Derivative         0.00000     -0.02795      0.00078
         33        Derivative         0.00000     -0.02085      0.00043
         34        Derivative         0.00000     -0.02007      0.00040
         35        Derivative         0.00000      0.08021      0.00643
         36        Derivative         0.00000     -0.02759      0.00076
         37        Derivative         0.00000      0.08330      0.00694
         38        Derivative         0.00000      0.01363      0.00019
         39        Derivative         0.00000     -0.06093      0.00371
         40        Derivative         0.00000     -0.01575      0.00025
         41        Derivative         0.00000     -0.00168      0.00000
         42        Derivative         0.00000      0.00091      0.00000
         43        Derivative         0.00000     -0.00268      0.00001
         44        Derivative         0.00000     -0.00591      0.00003
         45        Derivative         0.00000     -0.00862      0.00007

  Comparison of initial and final observables :

   Observable no.  Type            Observable   Initial       Final
          1        Derivative         0.00000      0.11174      0.30971
          2        Derivative         0.00000      0.09206      0.30974
          3        Derivative         0.00000      0.07151      0.30926
          4        Derivative         0.00000     70.03555     -0.02590
          5        Derivative         0.00000     55.92701      0.01436
          6        Derivative         0.00000     43.35822     -0.00678
          7        Derivative         0.00000     55.92701      0.01706
          8        Derivative         0.00000     43.36270     -0.00811
          9        Derivative         0.00000     70.03106     -0.02825
         10        Derivative         0.00000    -43.36430     -0.03817
         11        Derivative         0.00000    -70.04344      0.03621
         12        Derivative         0.00000    -55.92723     -0.02797
         13        Derivative         0.00000    -55.92724     -0.03022
         14        Derivative         0.00000    -43.36237     -0.03721
         15        Derivative         0.00000    -70.03469      0.03799
         16        Derivative         0.00000    -70.03911      0.03735
         17        Derivative         0.00000    -55.92724     -0.03022
         18        Derivative         0.00000    -43.37120     -0.03727
         19        Derivative         0.00000     43.44744     -0.00675
         20        Derivative         0.00000     70.12025     -0.02890
         21        Derivative         0.00000     56.06477      0.01657
         22        Derivative         0.00000   -105.39484      0.01046
         23        Derivative         0.00000    -84.70911     -0.05873
         24        Derivative         0.00000    -66.26838      0.08372
         25        Derivative         0.00000    -84.70912     -0.06123
         26        Derivative         0.00000    -66.27619      0.08471
         27        Derivative         0.00000   -105.38704      0.01293
         28        Derivative         0.00000     66.27937     -0.02698
         29        Derivative         0.00000    105.40915     -0.01907
         30        Derivative         0.00000     84.71002      0.07787
         31        Derivative         0.00000     84.70943      0.08000
         32        Derivative         0.00000     66.27565     -0.02795
         33        Derivative         0.00000    105.39337     -0.02085
         34        Derivative         0.00000    105.40100     -0.02007
         35        Derivative         0.00000     84.70942      0.08021
         36        Derivative         0.00000     66.29077     -0.02759
         37        Derivative         0.00000    -66.37763      0.08330
         38        Derivative         0.00000   -105.47728      0.01363
         39        Derivative         0.00000    -84.84224     -0.06093
         40        Derivative         0.00000     31.61907     -0.01575
         41        Derivative         0.00000     15.05357     -0.00168
         42        Derivative         0.00000     12.23373      0.00091
         43        Derivative         0.00000      3.38244     -0.00268
         44        Derivative         0.00000      6.99302     -0.00591
         45        Derivative         0.00000     10.46886     -0.00862

  Maximum range for interatomic potentials =    100000.000000 Angstroms

  General interatomic potentials :

Atom  Types   Potential      Parameter       Value         Units   Cutoffs(Ang)
  1     2                                                            Min /  Max
Cl   c Cl   s Spring (c-s)  Spring k 2       36.015729    eV*Ang^-2 0.000  0.800
                            Spring k 4       0.0000000    eV*Ang^-4
Sc   c Cl   s Buckingham    Buckingham A     1832.2806    eV        0.000 12.000
                            Buckingham rho  0.32944908    Ang
                            Buckingham C     0.0000000    eV*Ang^6
Cl   s Cl   s Buckingham    Buckingham A     1227.2000    eV        0.000 12.000
                            Buckingham rho  0.32100000    Ang
                            Buckingham C     14.530000    eV*Ang^6

  Total time to end of fitting =      52.2708 seconds

*  Output for configuration   1                                                *

  Components of energy :

  Interatomic potentials     =          22.09239998 eV
  Monopole - monopole (real) =          81.60424560 eV
  Monopole - monopole (recip)=        -197.17122252 eV
  Monopole - monopole (total)=        -115.56697692 eV
  Total lattice energy       =         -93.47457694 eV
  Total lattice energy       =           -9018.8678 kJ/(mole unit cells)

  Number of variables =       45

  Maximum number of calculations  =          1000
  Maximum Hessian update interval =            10
  Maximum step size               =   1.000000000
  Maximum parameter tolerance     =   0.000010000
  Maximum function  tolerance     =   0.000010000
  Maximum gradient  tolerance     =   0.001000000
  Maximum gradient  component     =   0.010000000

  Cell parameters to be optimised using strains

  Newton-Raphson optimiser to be used

  BFGS hessian update to be used

  Lower half triangular hessian to be used

  Start of bulk optimisation :

  ** Hessian calculated **

  **** Optimisation achieved ****

  Final energy =     -93.47596789 eV
  Final Gnorm  =       0.00006916

  Components of energy :

  Interatomic potentials     =          22.07705566 eV
  Monopole - monopole (real) =          80.86824522 eV
  Monopole - monopole (recip)=        -196.42126877 eV
  Monopole - monopole (total)=        -115.55302355 eV
  Total lattice energy       =         -93.47596789 eV
  Total lattice energy       =           -9019.0020 kJ/(mole unit cells)

  Final fractional coordinates of atoms :

   No.  Atomic        x           y          z          Radius
        Label       (Frac)      (Frac)     (Frac)       (Angs)
     1  Sc    c     0.666064    0.666064    0.666064    0.000000
     2  Sc    c     0.332132    0.332132    0.332132    0.000000
     3  Cl    c     0.296816    0.924724    0.554338    0.000000
     4  Cl    c     0.924723    0.554338    0.296816    0.000000
     5  Cl    c     0.443859    0.701380    0.073472    0.000000
     6  Cl    c     0.073473    0.443859    0.701380    0.000000
     7  Cl    c     0.701381    0.073472    0.443858    0.000000
     8  Cl    c     0.554337    0.296816    0.924724    0.000000
     9  Cl    s     0.322945    0.934435    0.547164    0.000000
    10  Cl    s     0.934434    0.547164    0.322946    0.000000
    11  Cl    s     0.451032    0.675251    0.063761    0.000000
    12  Cl    s     0.063762    0.451032    0.675250    0.000000
    13  Cl    s     0.675251    0.063761    0.451032    0.000000
    14  Cl    s     0.547164    0.322946    0.934435    0.000000

  Final Cartesian lattice vectors (Angstroms) :

        7.511513    0.025652    0.017137
        4.680933    5.874733    0.017138
        4.680934    2.265282    5.420452

  Final cell parameters and derivatives :

       a            7.511577 Angstrom     dE/de1(xx)    -0.000012 eV/strain
       b            7.511586 Angstrom     dE/de2(yy)     0.000068 eV/strain
       c            7.511588 Angstrom     dE/de3(zz)     0.000062 eV/strain
       alpha       51.256642 Degrees      dE/de4(yz)    -0.000015 eV/strain
       beta        51.256671 Degrees      dE/de5(xz)    -0.000033 eV/strain
       gamma       51.256677 Degrees      dE/de6(xy)    -0.000055 eV/strain

  Primitive cell volume =           237.964488 Angs**3

  Density of cell =      2.111745 g/cm**3

  Non-primitive cell volume =           237.964488 Angs**3

  Final internal derivatives :

   No.  Atomic          a             b             c           Radius
        Label          (eV)          (eV)          (eV)        (eV/Angs)
      1 Sc    c       0.000000      0.000000      0.000000      0.000000
      2 Sc    c       0.000067      0.000046      0.000006      0.000000
      3 Cl    c       0.000469      0.000415      0.000367      0.000000
      4 Cl    c       0.000420      0.000359      0.000450      0.000000
      5 Cl    c      -0.000334     -0.000514     -0.000448      0.000000
      6 Cl    c      -0.000405     -0.000312     -0.000460      0.000000
      7 Cl    c      -0.000479     -0.000396     -0.000319      0.000000
      8 Cl    c       0.000380      0.000506      0.000461      0.000000
      9 Cl    s      -0.000696     -0.000580     -0.000538      0.000000
     10 Cl    s      -0.000583     -0.000529     -0.000676      0.000000
     11 Cl    s       0.000479      0.000718      0.000586      0.000000
     12 Cl    s       0.000565      0.000471      0.000685      0.000000
     13 Cl    s       0.000706      0.000559      0.000479      0.000000
     14 Cl    s      -0.000535     -0.000711     -0.000601      0.000000
  Maximum abs         0.000706      0.000718      0.000685      0.000000

  Comparison of initial and final structures :

  Parameter   Initial value   Final value   Difference    Units      Percent
    Volume       235.208707    237.964488     2.755781    Angs**3      1.17
    a              7.453100      7.511577     0.058477    Angstroms    0.78
    b              7.453100      7.511586     0.058486    Angstroms    0.78
    c              7.453100      7.511588     0.058488    Angstroms    0.78
    alpha         51.648100     51.256642    -0.391458    Degrees     -0.76
    beta          51.648100     51.256671    -0.391429    Degrees     -0.76
    gamma         51.648100     51.256677    -0.391423    Degrees     -0.76
      1 x          0.666064      0.666064     0.000000    Fractional   0.00
      1 y          0.666064      0.666064     0.000000    Fractional   0.00
      1 z          0.666064      0.666064     0.000000    Fractional   0.00
      2 x          0.333936      0.332132     0.001804    Fractional   0.54
      2 y          0.333936      0.332132     0.001804    Fractional   0.54
      2 z          0.333936      0.332132     0.001804    Fractional   0.54
      3 x          0.294736      0.296816     0.002080    Fractional   0.71
      3 y          0.926265      0.924724     0.001541    Fractional   0.17
      3 z          0.556066      0.554338     0.001728    Fractional   0.31
      4 x          0.926265      0.924723     0.001542    Fractional   0.17
      4 y          0.556066      0.554338     0.001728    Fractional   0.31
      4 z          0.294736      0.296816     0.002080    Fractional   0.71
      5 x          0.443934      0.443859     0.000075    Fractional   0.02
      5 y          0.705264      0.701380     0.003884    Fractional   0.55
      5 z          0.073735      0.073472     0.000263    Fractional   0.36
      6 x          0.073735      0.073473     0.000262    Fractional   0.36
      6 y          0.443934      0.443859     0.000075    Fractional   0.02
      6 z          0.705264      0.701380     0.003884    Fractional   0.55
      7 x          0.705264      0.701381     0.003883    Fractional   0.55
      7 y          0.073735      0.073472     0.000263    Fractional   0.36
      7 z          0.443934      0.443858     0.000076    Fractional   0.02
      8 x          0.556066      0.554337     0.001729    Fractional   0.31
      8 y          0.294736      0.296816     0.002080    Fractional   0.71
      8 z          0.926265      0.924724     0.001541    Fractional   0.17
      9 x          0.321578      0.322945     0.001368    Fractional   0.43
      9 y          0.935325      0.934435     0.000891    Fractional   0.10
      9 z          0.548972      0.547164     0.001807    Fractional   0.33
     10 x          0.935321      0.934434     0.000887    Fractional   0.09
     10 y          0.548974      0.547164     0.001809    Fractional   0.33
     10 z          0.321581      0.322946     0.001365    Fractional   0.42
     11 x          0.451072      0.451032     0.000040    Fractional   0.01
     11 y          0.678388      0.675251     0.003137    Fractional   0.46
     11 z          0.064676      0.063761     0.000915    Fractional   1.42
     12 x          0.064680      0.063762     0.000918    Fractional   1.42
     12 y          0.451071      0.451032     0.000039    Fractional   0.01
     12 z          0.678385      0.675250     0.003135    Fractional   0.46
     13 x          0.678386      0.675251     0.003135    Fractional   0.46
     13 y          0.064680      0.063761     0.000918    Fractional   1.42
     13 z          0.451071      0.451032     0.000039    Fractional   0.01
     14 x          0.548971      0.547164     0.001808    Fractional   0.33
     14 y          0.321582      0.322946     0.001364    Fractional   0.42
     14 z          0.935322      0.934435     0.000887    Fractional   0.09

  Time to end of optimisation =      52.3023 seconds

  Timing analysis for GULP :

  Task / Subroutine                                          Time (Seconds)
  Calculation of reciprocal space energy and derivatives          1.6456
  Calculation of real space energy and derivatives               50.2130
  Sum of squares for fitting                                      0.3562
  Global summation overhead                                       0.0084

  Dump file written as ScCl3.grs

  Job Finished at 16:06.42  4th April      2022