  Job Started  at 13:59.25 26th July       2022

  Number of CPUs =     1

  Total number of configurations input =      1

*  Input for Configuration =   1                                               *

  Formula = Li17Sc5Cl32

  Number of irreducible atoms/shells =      54

  Total number atoms/shells =      54

  Dimensionality = 3               :  Bulk

  Cartesian lattice vectors (Angstroms) :

       10.280295    0.000000    0.000000
       -0.010581   10.313302    0.000000
       -0.032590   -0.029490   10.287008

  Cell parameters (Angstroms/Degrees):

  a =      10.2803    alpha =  90.1641
  b =      10.3133    beta  =  90.1815
  c =      10.2871    gamma =  90.0588

  Initial cell volume =        1090.667648 Angs**3

  Temperature of configuration =   0.00     K

  Pressure of configuration =         0.000 GPa

  Fractional coordinates of asymmetric unit :

   No.  Atomic       x           y          z         Charge      Occupancy
        Label      (Frac)      (Frac)     (Frac)        (e)         (Frac)
      1 Li    c    0.372539    0.372285    0.883106     1.00000    1.000000
      2 Li    c    0.505930 *  0.750545 *  0.251368 *   1.00000    1.000000
      3 Li    c    0.260625 *  0.739342 *  0.516742 *   1.00000    1.000000
      4 Li    c    0.750776 *  0.494940 *  0.250769 *   1.00000    1.000000
      5 Li    c    0.505863 *  0.015095 *  0.505814 *   1.00000    1.000000
      6 Li    c    0.772397 *  0.771912 *  0.005974 *   1.00000    1.000000
      7 Li    c    0.504776 *  0.472669 *  0.505248 *   1.00000    1.000000
      8 Li    c    0.494078 *  0.750429 *  0.749492 *   1.00000    1.000000
      9 Li    c    0.237884 *  0.760931 *  0.983331 *   1.00000    1.000000
     10 Li    c    0.260779 *  0.249980 *  0.494207 *   1.00000    1.000000
     11 Li    c    0.760893 *  0.259947 *  0.016514 *   1.00000    1.000000
     12 Li    c    0.505982 *  0.250101 *  0.261413 *   1.00000    1.000000
     13 Li    c    0.997524 *  0.755475 *  0.242802 *   1.00000    1.000000
     14 Li    c    0.749539 *  0.750475 *  0.504536 *   1.00000    1.000000
     15 Li    c    0.250446 *  0.983368 *  0.750992 *   1.00000    1.000000
     16 Li    c    0.758798 *  0.034722 *  0.250307 *   1.00000    1.000000
     17 Li    c    0.005589 *  0.516379 *  0.005540 *   1.00000    1.000000
     18 Sc    c    0.249666 *  0.494616 *  0.250710 *   3.00000    1.000000
     19 Sc    c    0.750136 *  0.505662 *  0.749865 *   3.00000    1.000000
     20 Sc    c    0.005281 *  0.249932 *  0.760920 *   3.00000    1.000000
     21 Sc    c    0.495027 *  0.005446 *  0.995040 *   3.00000    1.000000
     22 Sc    c    0.994797 *  0.994781 *  0.494560 *   3.00000    1.000000
     23 Cl    c    0.259539 *  0.262561 *  0.251792 *  -1.00000    1.000000
     24 Cl    c    0.744173 *  0.510149 *  0.511651 *  -1.00000    1.000000
     25 Cl    c    0.499371 *  0.999408 *  0.757095 *  -1.00000    1.000000
     26 Cl    c    0.002459 *  0.746977 *  0.010801 *  -1.00000    1.000000
     27 Cl    c    0.261338 *  0.996869 *  0.995090 *  -1.00000    1.000000
     28 Cl    c    0.745713 *  0.741784 *  0.755407 *  -1.00000    1.000000
     29 Cl    c    0.492476 *  0.241804 *  0.495580 *  -1.00000    1.000000
     30 Cl    c    0.011375 *  0.506898 *  0.248431 *  -1.00000    1.000000
     31 Cl    c    0.502476 *  0.766350 *  0.501221 *  -1.00000    1.000000
     32 Cl    c    0.755584 *  0.505899 *  0.991791 *  -1.00000    1.000000
     33 Cl    c    0.999039 *  0.010210 *  0.744903 *  -1.00000    1.000000
     34 Cl    c    0.000607 *  0.262645 *  0.992180 *  -1.00000    1.000000
     35 Cl    c    0.496003 *  0.504759 *  0.259065 *  -1.00000    1.000000
     36 Cl    c    0.239349 *  0.997223 *  0.507149 *  -1.00000    1.000000
     37 Cl    c    0.262071 *  0.752082 *  0.750094 *  -1.00000    1.000000
     38 Cl    c    0.509171 *  0.000473 *  0.242610 *  -1.00000    1.000000
     39 Cl    c    0.743464 *  0.266176 *  0.244981 *  -1.00000    1.000000
     40 Cl    c    0.993918 *  0.493406 *  0.748846 *  -1.00000    1.000000
     41 Cl    c    0.259490 *  0.498996 *  0.492075 *  -1.00000    1.000000
     42 Cl    c    0.739329 *  0.007020 *  0.006885 *  -1.00000    1.000000
     43 Cl    c    0.250690 *  0.514304 *  0.009449 *  -1.00000    1.000000
     44 Cl    c    0.994265 *  0.999715 *  0.262402 *  -1.00000    1.000000
     45 Cl    c    0.510055 *  0.500756 *  0.746492 *  -1.00000    1.000000
     46 Cl    c    0.756382 *  0.993684 *  0.496818 *  -1.00000    1.000000
     47 Cl    c    0.004834 *  0.239508 *  0.514741 *  -1.00000    1.000000
     48 Cl    c    0.506158 *  0.763849 *  0.003670 *  -1.00000    1.000000
     49 Cl    c    0.509439 *  0.244668 *  0.008775 *  -1.00000    1.000000
     50 Cl    c    0.001008 *  0.759481 *  0.499958 *  -1.00000    1.000000
     51 Cl    c    0.760412 *  0.262948 *  0.756628 *  -1.00000    1.000000
     52 Cl    c    0.257200 *  0.738445 *  0.257330 *  -1.00000    1.000000
     53 Cl    c    0.749812 *  0.736843 *  0.251247 *  -1.00000    1.000000
     54 Cl    c    0.243473 *  0.245076 *  0.744592 *  -1.00000    1.000000

*  General input information                                                   *

  Species output for all configurations :

  Species    Type    Atomic    Atomic    Charge       Radii (Angs)     Library
                     Number     Mass       (e)     Cova   Ionic  VDW   Symbol
    Li       Core        3       6.94   1.000000   0.680  0.000  1.800
    Sc       Core       21      44.96   3.000000   1.440  0.000  2.150
    Cl       Core       17      35.45  -1.000000   0.990  0.000  1.650

  Lattice summation method               =    Ewald          (3-D)
                                         =    Parry          (2-D)
                                         =    Saunders et al (1-D)
  Accuracy factor for lattice sums       =   12.000

  Analytic derivatives to be used

  Time limit = Infinity

  Maximum range for interatomic potentials =    100000.000000 Angstroms

  General interatomic potentials :

Atom  Types   Potential      Parameter       Value         Units   Cutoffs(Ang)
  1     2                                                            Min /  Max
Li   c Li   c Buckingham    Buckingham A     360.53000    eV        0.000 12.000
                            Buckingham rho  0.16100000    Ang
                            Buckingham C     0.0000000    eV*Ang^6
Li   c Cl   c Buckingham    Buckingham A     220.00000    eV        0.000 12.000
                            Buckingham rho  0.34000000    Ang
                            Buckingham C     0.0000000    eV*Ang^6
Cl   c Sc   c Buckingham    Buckingham A     26156.480    eV        0.000 12.000
                            Buckingham rho  0.24990000    Ang
                            Buckingham C     0.0000000    eV*Ang^6
Cl   c Cl   c Buckingham    Buckingham A     1227.2000    eV        0.000 12.000
                            Buckingham rho  0.32100000    Ang
                            Buckingham C     14.530000    eV*Ang^6

*  Output for configuration   1                                                *

  Components of energy :

  Interatomic potentials     =          53.55288886 eV
  Monopole - monopole (real) =        -229.83883439 eV
  Monopole - monopole (recip)=        -182.45264200 eV
  Monopole - monopole (total)=        -412.29147639 eV
  Total lattice energy       =        -358.73858753 eV
  Total lattice energy       =          -34612.7899 kJ/(mole unit cells)

  Number of variables =      165

  Maximum number of calculations  =          1000
  Maximum Hessian update interval =            10
  Maximum step size               =   1.000000000
  Maximum parameter tolerance     =   0.000010000
  Maximum function  tolerance     =   0.000010000
  Maximum gradient  tolerance     =   0.001000000
  Maximum gradient  component     =   0.010000000

  Symmetry not applied to optimisation

  Cell parameters to be optimised using strains

  Newton-Raphson optimiser to be used

  BFGS hessian update to be used

  Lower half triangular hessian to be used

  Start of bulk optimisation :

  ** Hessian calculated **
  ** Hessian calculated **
  ** Hessian calculated **
  ** Hessian calculated **
  ** Hessian calculated **
  ** Hessian calculated **
  ** Hessian calculated **
  ** Hessian calculated **
  ** Hessian calculated **
  ** Hessian calculated **
  ** Hessian calculated **
  ** Hessian calculated **
  ** Hessian calculated **
  ** Hessian calculated **
  ** Hessian calculated **
  ** Hessian calculated **
  ** Hessian calculated **

  **** Optimisation achieved ****

  Final energy =    -380.10358186 eV
  Final Gnorm  =       0.00012935

  Components of energy :

  Interatomic potentials     =          50.01811001 eV
  Monopole - monopole (real) =        -244.68780995 eV
  Monopole - monopole (recip)=        -185.43388192 eV
  Monopole - monopole (total)=        -430.12169186 eV
  Total lattice energy       =        -380.10358186 eV
  Total lattice energy       =          -36674.1852 kJ/(mole unit cells)

  Final fractional coordinates of atoms :

   No.  Atomic        x           y          z          Radius
        Label       (Frac)      (Frac)     (Frac)       (Angs)
     1  Li    c     0.372539    0.372285    0.883106    0.000000
     2  Li    c     0.366564    0.797551    0.287568    0.000000
     3  Li    c     0.376019    0.654722    0.920598    0.000000
     4  Li    c     0.602872    0.548488    0.246594    0.000000
     5  Li    c     0.627327    0.319531    0.513623    0.000000
     6  Li    c     0.834246    0.914487    0.874022    0.000000
     7  Li    c     0.413270    0.561423    0.542251    0.000000
     8  Li    c     0.545573    0.845359    0.614405    0.000000
     9  Li    c     0.163103    0.079560    0.047825    0.000000
    10  Li    c     0.266168    0.149449    0.685203    0.000000
    11  Li    c     0.742492    0.321992    0.092096    0.000000
    12  Li    c     0.420290    0.260598    0.225261    0.000000
    13  Li    c     0.942417    0.747531    0.248011    0.000000
    14  Li    c     0.683448    0.863439    0.188341    0.000000
    15  Li    c     0.144292    0.864336    0.766507    0.000000
    16  Li    c     0.595332    0.073034    0.361212    0.000000
    17  Li    c     0.939066    0.601472    0.001298    0.000000
    18  Sc    c     0.146402    0.433506    0.242660    0.000000
    19  Sc    c     0.768873    0.609111    0.692123    0.000000
    20  Sc    c     0.989367    0.328888    0.757333    0.000000
    21  Sc    c     0.508075    0.050550    0.887905    0.000000
    22  Sc    c     0.953222    0.016976    0.450299    0.000000
    23  Cl    c     0.153390    0.198034    0.256159    0.000000
    24  Cl    c     0.609703    0.518309    0.487792    0.000000
    25  Cl    c     0.594326    0.040814    0.601692    0.000000
    26  Cl    c     0.930204    0.779196    0.843886    0.000000
    27  Cl    c     0.245260    0.990814    0.895660    0.000000
    28  Cl    c     0.742510    0.835295    0.630770    0.000000
    29  Cl    c     0.465731    0.223120    0.677590    0.000000
    30  Cl    c     0.004093    0.588617    0.201043    0.000000
[...]
     12 Li    c      -0.000169     -0.000648      0.000694      0.000000
     13 Li    c      -0.001029     -0.000405      0.000353      0.000000
     14 Li    c       0.002710     -0.003108      0.003325      0.000000
     15 Li    c      -0.000033      0.000124     -0.001088      0.000000
     16 Li    c      -0.000001     -0.000172     -0.000729      0.000000
     17 Li    c       0.000185      0.000847      0.001136      0.000000
     18 Sc    c      -0.000522      0.000140      0.001584      0.000000
     19 Sc    c      -0.001686      0.001054      0.000070      0.000000
     20 Sc    c       0.001112     -0.000638     -0.000752      0.000000
     21 Sc    c       0.003756     -0.001078      0.001779      0.000000
     22 Sc    c       0.000056     -0.002844     -0.001033      0.000000
     23 Cl    c       0.000127      0.000991     -0.001139      0.000000
     24 Cl    c       0.005427     -0.003774      0.006785      0.000000
     25 Cl    c       0.001119     -0.001356     -0.001192      0.000000
     26 Cl    c      -0.000936     -0.000624     -0.000126      0.000000
     27 Cl    c      -0.000479     -0.000840      0.000262      0.000000
     28 Cl    c      -0.000504     -0.000547      0.000608      0.000000
     29 Cl    c      -0.000596      0.000620     -0.000107      0.000000
     30 Cl    c      -0.000321     -0.000222     -0.000801      0.000000
     31 Cl    c       0.000643      0.002331     -0.001492      0.000000
     32 Cl    c      -0.001964      0.002217     -0.002446      0.000000
     33 Cl    c       0.000232      0.001237      0.000687      0.000000
     34 Cl    c       0.002945      0.000167      0.000140      0.000000
     35 Cl    c       0.003006     -0.000617     -0.000037      0.000000
     36 Cl    c      -0.001246     -0.000129     -0.000334      0.000000
     37 Cl    c       0.000328     -0.001606      0.000332      0.000000
     38 Cl    c      -0.000465     -0.000295     -0.000116      0.000000
     39 Cl    c      -0.000090      0.000002      0.000478      0.000000
     40 Cl    c      -0.000201     -0.001134     -0.000119      0.000000
     41 Cl    c       0.000593     -0.001006      0.000372      0.000000
     42 Cl    c      -0.000929     -0.000002      0.000234      0.000000
     43 Cl    c       0.003750     -0.002126     -0.002531      0.000000
     44 Cl    c      -0.001143      0.000562      0.000921      0.000000
     45 Cl    c       0.002999     -0.004554      0.001241      0.000000
     46 Cl    c       0.001211      0.001043      0.000952      0.000000
     47 Cl    c       0.000364     -0.000034     -0.000265      0.000000
     48 Cl    c      -0.002933      0.001780     -0.002742      0.000000
     49 Cl    c      -0.001091      0.002213     -0.000051      0.000000
     50 Cl    c       0.000051      0.000498     -0.000336      0.000000
     51 Cl    c      -0.000364      0.001130      0.000055      0.000000
     52 Cl    c      -0.001071      0.001160      0.001213      0.000000
     53 Cl    c      -0.001290      0.002163     -0.000927      0.000000
     54 Cl    c      -0.000110     -0.000068      0.000007      0.000000
  Maximum abs         0.005456      0.004554      0.007388      0.000000

  Comparison of initial and final structures :

  Parameter   Initial value   Final value   Difference    Units      Percent
    Volume      1090.667648   1047.673488   -42.994159    Angs**3     -3.94
    a             10.280295     10.723103     0.442808    Angstroms    4.31
    b             10.313308     11.560976     1.247668    Angstroms   12.10
    c             10.287102      9.058474    -1.228628    Angstroms  -11.94
    alpha         90.164065     82.444703    -7.719363    Degrees     -8.56
    beta          90.181519     85.724070    -4.457449    Degrees     -4.94
    gamma         90.058784    108.487406    18.428622    Degrees     20.46
      1 x          0.372539      0.372539     0.000000    Fractional   0.00
      1 y          0.372285      0.372285     0.000000    Fractional   0.00
      1 z          0.883106      0.883106     0.000000    Fractional   0.00
      2 x          0.505930      0.366564     0.139365    Fractional  27.55
      2 y          0.750545      0.797551     0.047006    Fractional   6.26
      2 z          0.251368      0.287568     0.036199    Fractional  14.40
      3 x          0.260625      0.376019     0.115394    Fractional  44.28
      3 y          0.739342      0.654722     0.084620    Fractional  11.45
      3 z          0.516742      0.920598     0.403856    Fractional  78.15
      4 x          0.750776      0.602872     0.147903    Fractional  19.70
      4 y          0.494940      0.548488     0.053548    Fractional  10.82
      4 z          0.250769      0.246594     0.004175    Fractional   1.67
      5 x          0.505863      0.627327     0.121464    Fractional  24.01
      5 y          0.015095      0.319531     0.304436    Fractional2016.84
      5 z          0.505814      0.513623     0.007810    Fractional   1.54
      6 x          0.772397      0.834246     0.061849    Fractional   8.01
      6 y          0.771912      0.914487     0.142576    Fractional  18.47
      6 z          0.005974      0.874022     0.131952    Fractional  13.12
      7 x          0.504776      0.413270     0.091506    Fractional  18.13
      7 y          0.472669      0.561423     0.088753    Fractional  18.78
      7 z          0.505248      0.542251     0.037002    Fractional   7.32
      8 x          0.494078      0.545573     0.051494    Fractional  10.42
      8 y          0.750429      0.845359     0.094930    Fractional  12.65
      8 z          0.749492      0.614405     0.135087    Fractional  18.02
      9 x          0.237884      0.163103     0.074782    Fractional  31.44
      9 y          0.760931      0.079560     0.318630    Fractional  41.87
      9 z          0.983331      0.047825     0.064493    Fractional   6.56
     10 x          0.260779      0.266168     0.005389    Fractional   2.07
     10 y          0.249980      0.149449     0.100531    Fractional  40.22
     10 z          0.494207      0.685203     0.190996    Fractional  38.65
     11 x          0.760893      0.742492     0.018401    Fractional   2.42
     11 y          0.259947      0.321992     0.062045    Fractional  23.87
     11 z          0.016514      0.092096     0.075582    Fractional 457.68
     12 x          0.505982      0.420290     0.085693    Fractional  16.94
     12 y          0.250101      0.260598     0.010498    Fractional   4.20
     12 z          0.261413      0.225261     0.036153    Fractional  13.83
     13 x          0.997524      0.942417     0.055107    Fractional   5.52
     13 y          0.755475      0.747531     0.007944    Fractional   1.05
     13 z          0.242802      0.248011     0.005209    Fractional   2.15
     14 x          0.749539      0.683448     0.066091    Fractional   8.82
     14 y          0.750475      0.863439     0.112965    Fractional  15.05
     14 z          0.504536      0.188341     0.316195    Fractional  62.67
     15 x          0.250446      0.144292     0.106154    Fractional  42.39
     15 y          0.983368      0.864336     0.119032    Fractional  12.10
     15 z          0.750992      0.766507     0.015514    Fractional   2.07
     16 x          0.758798      0.595332     0.163466    Fractional  21.54
     16 y          0.034722      0.073034     0.038312    Fractional 110.34
     16 z          0.250307      0.361212     0.110905    Fractional  44.31
     17 x          0.005589      0.939066     0.066523    Fractional   6.62
     17 y          0.516379      0.601472     0.085094    Fractional  16.48
     17 z          0.005540      0.001298     0.004242    Fractional   0.42
     18 x          0.249666      0.146402     0.103264    Fractional  41.36
     18 y          0.494616      0.433506     0.061111    Fractional  12.36
     18 z          0.250710      0.242660     0.008050    Fractional   3.21
     19 x          0.750136      0.768873     0.018736    Fractional   2.50
     19 y          0.505662      0.609111     0.103449    Fractional  20.46
     19 z          0.749865      0.692123     0.057742    Fractional   7.70
     20 x          0.005281      0.989367     0.015914    Fractional   1.58
     20 y          0.249932      0.328888     0.078956    Fractional  31.59
     20 z          0.760920      0.757333     0.003588    Fractional   0.47
     21 x          0.495027      0.508075     0.013048    Fractional   2.64
     21 y          0.005446      0.050550     0.045104    Fractional 828.27
     21 z          0.995040      0.887905     0.107135    Fractional  10.77
     22 x          0.994797      0.953222     0.041575    Fractional   4.18
     22 y          0.994781      0.016976     0.022195    Fractional   2.23
     22 z          0.494560      0.450299     0.044260    Fractional   8.95
     23 x          0.259539      0.153390     0.106149    Fractional  40.90
     23 y          0.262561      0.198034     0.064526    Fractional  24.58
     23 z          0.251792      0.256159     0.004366    Fractional   1.73
     24 x          0.744173      0.609703     0.134469    Fractional  18.07
     24 y          0.510149      0.518309     0.008161    Fractional   1.60
     24 z          0.511651      0.487792     0.023859    Fractional   4.66
     25 x          0.499371      0.594326     0.094954    Fractional  19.01
     25 y          0.999408      0.040814     0.041406    Fractional   4.14
     25 z          0.757095      0.601692     0.155404    Fractional  20.53
     26 x          0.002459      0.930204     0.072256    Fractional   7.21
     26 y          0.746977      0.779196     0.032219    Fractional   4.31
     26 z          0.010801      0.843886     0.166915    Fractional1545.38
     27 x          0.261338      0.245260     0.016078    Fractional   6.15
     27 y          0.996869      0.990814     0.006055    Fractional   0.61
     27 z          0.995090      0.895660     0.099430    Fractional   9.99
     28 x          0.745713      0.742510     0.003203    Fractional   0.43
     28 y          0.741784      0.835295     0.093511    Fractional  12.61
     28 z          0.755407      0.630770     0.124637    Fractional  16.50
     29 x          0.492476      0.465731     0.026745    Fractional   5.43
     29 y          0.241804      0.223120     0.018684    Fractional   7.73
     29 z          0.495580      0.677590     0.182010    Fractional  36.73
     30 x          0.011375      0.004093     0.007282    Fractional  64.02
     30 y          0.506898      0.588617     0.081719    Fractional  16.12
     30 z          0.248431      0.201043     0.047388    Fractional  19.07
     31 x          0.502476      0.456431     0.046045    Fractional   9.16
     31 y          0.766350      0.744437     0.021913    Fractional   2.86
     31 z          0.501221      0.460124     0.041097    Fractional   8.20
     32 x          0.755584      0.737733     0.017852    Fractional   2.36
     32 y          0.505899      0.496355     0.009543    Fractional   1.89
     32 z          0.991791      0.979390     0.012401    Fractional   1.25
     33 x          0.999039      0.928182     0.070856    Fractional   7.09
     33 y          0.010210      0.081726     0.071516    Fractional 700.47
     33 z          0.744903      0.729730     0.015173    Fractional   2.04
     34 x          0.000607      0.957255     0.043352    Fractional   4.33
     34 y          0.262645      0.340721     0.078076    Fractional  29.73
     34 z          0.992180      0.065385     0.073205    Fractional   7.38
     35 x          0.496003      0.398823     0.097180    Fractional  19.59
     35 y          0.504759      0.428719     0.076040    Fractional  15.06
     35 z          0.259065      0.249856     0.009209    Fractional   3.55
     36 x          0.239349      0.165408     0.073941    Fractional  30.89
     36 y          0.997223      0.012400     0.015177    Fractional   1.52
     36 z          0.507149      0.576675     0.069525    Fractional  13.71
     37 x          0.262071      0.400662     0.138590    Fractional  52.88
     37 y          0.752082      0.823638     0.071555    Fractional   9.51
     37 z          0.750094      0.808735     0.058641    Fractional   7.82
     38 x          0.509171      0.457084     0.052088    Fractional  10.23
     38 y          0.000473      0.976551     0.023922    Fractional   2.39
     38 z          0.242610      0.188845     0.053765    Fractional  22.16
     39 x          0.743464      0.609454     0.134010    Fractional  18.03
     39 y          0.266176      0.260959     0.005218    Fractional   1.96
     39 z          0.244981      0.296503     0.051522    Fractional  21.03
     40 x          0.993918      0.989432     0.004485    Fractional   0.45
     40 y          0.493406      0.557206     0.063800    Fractional  12.93
     40 z          0.748846      0.783408     0.034562    Fractional   4.62
     41 x          0.259490      0.193836     0.065654    Fractional  25.30
     41 y          0.498996      0.461883     0.037113    Fractional   7.44
     41 z          0.492075      0.530393     0.038318    Fractional   7.79
     42 x          0.739329      0.738049     0.001280    Fractional   0.17
     42 y          0.007020      0.219319     0.212299    Fractional3024.05
     42 z          0.006885      0.901447     0.105438    Fractional  10.47
     43 x          0.250690      0.237266     0.013424    Fractional   5.35
     43 y          0.514304      0.473440     0.040864    Fractional   7.95
     43 z          0.009449      0.950987     0.058462    Fractional   5.79
     44 x          0.994265      0.011441     0.017176    Fractional   1.73
     44 y          0.999715      0.949075     0.050640    Fractional   5.07
     44 z          0.262402      0.186752     0.075650    Fractional  28.83
     45 x          0.510055      0.512489     0.002433    Fractional   0.48
     45 y          0.500756      0.564466     0.063710    Fractional  12.72
     45 z          0.746492      0.783411     0.036919    Fractional   4.95
     46 x          0.756382      0.746873     0.009509    Fractional   1.26
     46 y          0.993684      0.005008     0.011324    Fractional   1.14
     46 z          0.496818      0.308243     0.188575    Fractional  37.96
     47 x          0.004834      0.978320     0.026514    Fractional   2.64
     47 y          0.239508      0.260186     0.020677    Fractional   8.63
     47 z          0.514741      0.463509     0.051232    Fractional   9.95
     48 x          0.506158      0.662037     0.155878    Fractional  30.80
     48 y          0.763849      0.916783     0.152933    Fractional  20.02
     48 z          0.003670      0.971524     0.032146    Fractional   3.20
     49 x          0.509439      0.422846     0.086593    Fractional  17.00
     49 y          0.244668      0.221269     0.023399    Fractional   9.56
     49 z          0.008775      0.016118     0.007343    Fractional  83.68
     50 x          0.001008      0.942918     0.058090    Fractional   5.80
     50 y          0.759481      0.770840     0.011359    Fractional   1.50
     50 z          0.499958      0.475083     0.024875    Fractional   4.98
     51 x          0.760412      0.807228     0.046816    Fractional   6.16
     51 y          0.262948      0.406581     0.143633    Fractional  54.62
     51 z          0.756628      0.612257     0.144370    Fractional  19.08
     52 x          0.257200      0.315546     0.058347    Fractional  22.69
     52 y          0.738445      0.664480     0.073965    Fractional  10.02
     52 z          0.257330      0.164387     0.092942    Fractional  36.12
     53 x          0.749812      0.743021     0.006791    Fractional   0.91
     53 y          0.736843      0.715354     0.021489    Fractional   2.92
     53 z          0.251247      0.199791     0.051456    Fractional  20.48
     54 x          0.243473      0.186457     0.057016    Fractional  23.42
     54 y          0.245076      0.244721     0.000355    Fractional   0.14
     54 z          0.744592      0.816159     0.071567    Fractional   9.61

  Time to end of optimisation =       4.7213 seconds

  Timing analysis for GULP :

  Task / Subroutine                                          Time (Seconds)
  Calculation of reciprocal space energy and derivatives          0.2078
  Calculation of real space energy and derivatives                4.4704
  Calculation and manipulation of Hessian matrix                  0.0012
  Calculation of matrix inversion                                 0.0180
  Global summation overhead                                       0.0002

  Dump file written as halospinel.grs

  Job Finished at 13:59.30 26th July       2022