  Job Started  at 13:01.58 28th July       2022

  Number of CPUs =     1

  Total number of configurations input =      1

*  Input for Configuration =   1                                               *

  Formula = Li17Sc5Cl32

  Number of irreducible atoms/shells =      54

  Total number atoms/shells =      54

  Dimensionality = 3               :  Bulk

  Cartesian lattice vectors (Angstroms) :

       10.403700    0.000000    0.000000
        0.000000   10.403700    0.000000
        0.000000    0.000000   10.403700

  Cell parameters (Angstroms/Degrees):

  a =      10.4037    alpha =  90.0000
  b =      10.4037    beta  =  90.0000
  c =      10.4037    gamma =  90.0000

  Initial cell volume =        1126.065003 Angs**3

  Temperature of configuration =   0.00     K

  Pressure of configuration =         0.000 GPa

  Fractional coordinates of asymmetric unit :

   No.  Atomic       x           y          z         Charge      Occupancy
        Label      (Frac)      (Frac)     (Frac)        (e)         (Frac)
      1 Li    c    0.375000    0.375000    0.875000     1.00000    1.000000
      2 Li    c    0.500000 *  0.750000 *  0.250000 *   1.00000    1.000000
      3 Li    c    0.250000 *  0.750000 *  0.500000 *   1.00000    1.000000
      4 Li    c    0.750000 *  0.500000 *  0.250000 *   1.00000    1.000000
      5 Li    c    0.500000 *  0.000000 *  0.500000 *   1.00000    1.000000
      6 Li    c    0.875000 *  0.875000 *  0.114000 *   1.00000    1.000000
      7 Li    c    0.500000 *  0.500000 *  0.500000 *   1.00000    1.000000
      8 Li    c    0.500000 *  0.750000 *  0.750000 *   1.00000    1.000000
      9 Li    c    0.250000 *  0.750000 *  0.000000 *   1.00000    1.000000
     10 Li    c    0.250000 *  0.250000 *  0.500000 *   1.00000    1.000000
     11 Li    c    0.750000 *  0.250000 *  0.000000 *   1.00000    1.000000
     12 Li    c    0.500000 *  0.250000 *  0.250000 *   1.00000    1.000000
     13 Li    c    0.000000 *  0.750000 *  0.250000 *   1.00000    1.000000
     14 Li    c    0.750000 *  0.750000 *  0.500000 *   1.00000    1.000000
     15 Li    c    0.250000 *  0.000000 *  0.750000 *   1.00000    1.000000
     16 Li    c    0.750000 *  0.000000 *  0.250000 *   1.00000    1.000000
     17 Li    c    0.000000 *  0.500000 *  0.000000 *   1.00000    1.000000
     18 Sc    c    0.250000 *  0.500000 *  0.250000 *   3.00000    1.000000
     19 Sc    c    0.750000 *  0.500000 *  0.750000 *   3.00000    1.000000
     20 Sc    c    0.000000 *  0.250000 *  0.750000 *   3.00000    1.000000
     21 Sc    c    0.500000 *  0.000000 *  0.000000 *   3.00000    1.000000
     22 Sc    c    0.000000 *  0.000000 *  0.500000 *   3.00000    1.000000
     23 Cl    c    0.254350 *  0.254350 *  0.254350 *  -1.00000    1.000000
     24 Cl    c    0.745650 *  0.504350 *  0.504350 *  -1.00000    1.000000
     25 Cl    c    0.495650 *  0.995650 *  0.754350 *  -1.00000    1.000000
     26 Cl    c    0.004350 *  0.745650 *  0.004350 *  -1.00000    1.000000
     27 Cl    c    0.254350 *  0.995650 *  0.995650 *  -1.00000    1.000000
     28 Cl    c    0.745650 *  0.745650 *  0.745650 *  -1.00000    1.000000
     29 Cl    c    0.495650 *  0.254350 *  0.495650 *  -1.00000    1.000000
     30 Cl    c    0.004350 *  0.504350 *  0.245650 *  -1.00000    1.000000
     31 Cl    c    0.504350 *  0.745650 *  0.504350 *  -1.00000    1.000000
     32 Cl    c    0.754350 *  0.495650 *  0.995650 *  -1.00000    1.000000
     33 Cl    c    0.004350 *  0.004350 *  0.745650 *  -1.00000    1.000000
     34 Cl    c    0.995650 *  0.254350 *  0.995650 *  -1.00000    1.000000
     35 Cl    c    0.495650 *  0.495650 *  0.254350 *  -1.00000    1.000000
     36 Cl    c    0.245650 *  0.004350 *  0.504350 *  -1.00000    1.000000
     37 Cl    c    0.254350 *  0.754350 *  0.754350 *  -1.00000    1.000000
     38 Cl    c    0.504350 *  0.004350 *  0.245650 *  -1.00000    1.000000
     39 Cl    c    0.745650 *  0.245650 *  0.245650 *  -1.00000    1.000000
     40 Cl    c    0.995650 *  0.495650 *  0.754350 *  -1.00000    1.000000
     41 Cl    c    0.254350 *  0.495650 *  0.495650 *  -1.00000    1.000000
     42 Cl    c    0.745650 *  0.004350 *  0.004350 *  -1.00000    1.000000
     43 Cl    c    0.245650 *  0.504350 *  0.004350 *  -1.00000    1.000000
     44 Cl    c    0.995650 *  0.995650 *  0.254350 *  -1.00000    1.000000
     45 Cl    c    0.504350 *  0.504350 *  0.745650 *  -1.00000    1.000000
     46 Cl    c    0.754350 *  0.995650 *  0.495650 *  -1.00000    1.000000
     47 Cl    c    0.004350 *  0.245650 *  0.504350 *  -1.00000    1.000000
     48 Cl    c    0.495650 *  0.754350 *  0.995650 *  -1.00000    1.000000
     49 Cl    c    0.504350 *  0.245650 *  0.004350 *  -1.00000    1.000000
     50 Cl    c    0.995650 *  0.754350 *  0.495650 *  -1.00000    1.000000
     51 Cl    c    0.754350 *  0.254350 *  0.754350 *  -1.00000    1.000000
     52 Cl    c    0.245650 *  0.745650 *  0.245650 *  -1.00000    1.000000
     53 Cl    c    0.754350 *  0.754350 *  0.254350 *  -1.00000    1.000000
     54 Cl    c    0.245650 *  0.245650 *  0.745650 *  -1.00000    1.000000

*  General input information                                                   *

  Species output for all configurations :

  Species    Type    Atomic    Atomic    Charge       Radii (Angs)     Library
                     Number     Mass       (e)     Cova   Ionic  VDW   Symbol
    Li       Core        3       6.94   1.000000   0.680  0.000  1.800
    Sc       Core       21      44.96   3.000000   1.440  0.000  2.150
    Cl       Core       17      35.45  -1.000000   0.990  0.000  1.650

  Lattice summation method               =    Ewald          (3-D)
                                         =    Parry          (2-D)
                                         =    Saunders et al (1-D)
  Accuracy factor for lattice sums       =   12.000

  Analytic derivatives to be used

  Time limit = Infinity

  Maximum range for interatomic potentials =    100000.000000 Angstroms

  General interatomic potentials :

Atom  Types   Potential      Parameter       Value         Units   Cutoffs(Ang)
  1     2                                                            Min /  Max
Li   c Li   c Buckingham    Buckingham A     360.53000    eV        0.000 12.000
                            Buckingham rho  0.16100000    Ang
                            Buckingham C     0.0000000    eV*Ang^6
Li   c Cl   c Buckingham    Buckingham A     220.00000    eV        0.000 12.000
                            Buckingham rho  0.34000000    Ang
                            Buckingham C     0.0000000    eV*Ang^6
Cl   c Sc   c Buckingham    Buckingham A     26156.480    eV        0.000 12.000
                            Buckingham rho  0.24990000    Ang
                            Buckingham C     0.0000000    eV*Ang^6
Cl   c Cl   c Buckingham    Buckingham A     1227.2000    eV        0.000 12.000
                            Buckingham rho  0.32100000    Ang
                            Buckingham C     14.530000    eV*Ang^6

*  Output for configuration   1                                                *

  Components of energy :

  Interatomic potentials     =          41.78667262 eV
  Monopole - monopole (real) =        -217.40896198 eV
  Monopole - monopole (recip)=        -180.23756428 eV
  Monopole - monopole (total)=        -397.64652626 eV
  Total lattice energy       =        -355.85985364 eV
  Total lattice energy       =          -34335.0361 kJ/(mole unit cells)

  Number of variables =      165

  Maximum number of calculations  =          1000
  Maximum Hessian update interval =            10
  Maximum step size               =   1.000000000
  Maximum parameter tolerance     =   0.000010000
  Maximum function  tolerance     =   0.000010000
  Maximum gradient  tolerance     =   0.001000000
  Maximum gradient  component     =   0.010000000

  Symmetry not applied to optimisation

  Cell parameters to be optimised using strains

  Newton-Raphson optimiser to be used

  BFGS hessian update to be used

  Lower half triangular hessian to be used

  Start of bulk optimisation :

  ** Hessian calculated **
  ** Hessian calculated **
  ** Hessian calculated **
  ** Hessian calculated **
  ** Hessian calculated **
  ** Hessian calculated **
  ** Hessian calculated **
  ** Hessian calculated **
  ** Hessian calculated **
  ** Hessian calculated **
  ** Hessian calculated **
  ** Hessian calculated **
  ** Hessian calculated **
  ** Hessian calculated **
  ** Hessian calculated **
  ** Hessian calculated **
  ** Hessian calculated **
  ** Hessian calculated **
  ** Hessian calculated **
  ** Hessian calculated **
  ** Hessian calculated **
  ** Hessian calculated **
  ** Hessian calculated **
  ** Hessian calculated **
  ** Hessian calculated **

  **** Optimisation achieved ****

  Final energy =    -380.33865973 eV
  Final Gnorm  =       0.00015577

  Components of energy :

  Interatomic potentials     =          49.79262337 eV
  Monopole - monopole (real) =        -246.80729933 eV
  Monopole - monopole (recip)=        -183.32398376 eV
  Monopole - monopole (total)=        -430.13128310 eV
  Total lattice energy       =        -380.33865973 eV
  Total lattice energy       =          -36696.8667 kJ/(mole unit cells)

  Final fractional coordinates of atoms :

   No.  Atomic        x           y          z          Radius
        Label       (Frac)      (Frac)     (Frac)       (Angs)
     1  Li    c     0.375000    0.375000    0.875000    0.000000
     2  Li    c     0.591834    0.609860    0.000254    0.000000
     3  Li    c     0.268767    0.595016    0.568107    0.000000
     4  Li    c     0.963375    0.318156    0.263629    0.000000
     5  Li    c     0.490486    0.218912    0.609032    0.000000
     6  Li    c     0.884759    0.893309    0.035039    0.000000
     7  Li    c     0.549547    0.393970    0.279771    0.000000
     8  Li    c     0.642285    0.919504    0.564392    0.000000
     9  Li    c     0.121397    0.839176    0.801558    0.000000
    10  Li    c     0.210993    0.287797    0.454108    0.000000
    11  Li    c     0.816585    0.388855    0.018169    0.000000
    12  Li    c     0.392703    0.096353    0.304131    0.000000
    13  Li    c     0.810995    0.637870    0.232476    0.000000
    14  Li    c     0.465469    0.730615    0.312690    0.000000
    15  Li    c     0.350168    0.885423    0.604505    0.000000
    16  Li    c     0.719657    0.109691    0.215372    0.000000
    17  Li    c     0.076221    0.417601    0.799961    0.000000
    18  Sc    c     0.188781    0.603239    0.136203    0.000000
    19  Sc    c     0.659395    0.575477    0.631485    0.000000
    20  Sc    c     0.887133    0.198185    0.680757    0.000000
    21  Sc    c     0.512772    0.951612    0.935602    0.000000
    22  Sc    c     0.004861    0.913661    0.438300    0.000000
    23  Cl    c     0.155777    0.377136    0.274025    0.000000
    24  Cl    c     0.655403    0.562016    0.365183    0.000000
    25  Cl    c     0.509816    0.025591    0.661390    0.000000
    26  Cl    c     0.045421    0.781509    0.983377    0.000000
[...]
     13 Li    c      -0.002235     -0.000302      0.001847      0.000000
     14 Li    c       0.000435      0.000030     -0.000044      0.000000
     15 Li    c       0.000428      0.001371     -0.001219      0.000000
     16 Li    c      -0.001005     -0.000054      0.002258      0.000000
     17 Li    c       0.001634      0.006501     -0.000871      0.000000
     18 Sc    c      -0.000212     -0.001756      0.002271      0.000000
     19 Sc    c       0.008325     -0.003128     -0.004614      0.000000
     20 Sc    c       0.006274     -0.003622      0.000863      0.000000
     21 Sc    c       0.002233     -0.005335      0.000764      0.000000
     22 Sc    c       0.005123     -0.001433     -0.001411      0.000000
     23 Cl    c      -0.000148      0.003265     -0.004106      0.000000
     24 Cl    c       0.001354      0.001421      0.002249      0.000000
     25 Cl    c       0.001777      0.001075      0.000884      0.000000
     26 Cl    c      -0.000564     -0.001035     -0.000675      0.000000
     27 Cl    c       0.000132     -0.002423      0.001661      0.000000
     28 Cl    c       0.001497     -0.000503     -0.000580      0.000000
     29 Cl    c      -0.001066      0.000379     -0.000281      0.000000
     30 Cl    c       0.001466     -0.000698     -0.002564      0.000000
     31 Cl    c       0.001081     -0.001921      0.000268      0.000000
     32 Cl    c      -0.000630     -0.001857      0.003973      0.000000
     33 Cl    c       0.001296     -0.001404     -0.000958      0.000000
     34 Cl    c      -0.002767     -0.002887      0.005099      0.000000
     35 Cl    c      -0.000487     -0.001566     -0.000904      0.000000
     36 Cl    c       0.002099     -0.000420     -0.001637      0.000000
     37 Cl    c       0.000462     -0.002584      0.000235      0.000000
     38 Cl    c       0.001716     -0.001504     -0.001576      0.000000
     39 Cl    c       0.001782     -0.000759     -0.003361      0.000000
     40 Cl    c      -0.000379      0.006009      0.001058      0.000000
     41 Cl    c      -0.001460     -0.000476     -0.001140      0.000000
     42 Cl    c      -0.000055     -0.001852      0.000956      0.000000
     43 Cl    c      -0.001897      0.002102     -0.004011      0.000000
     44 Cl    c      -0.001942     -0.000879     -0.003376      0.000000
     45 Cl    c       0.001670     -0.000947      0.000637      0.000000
     46 Cl    c       0.000154     -0.002233      0.001358      0.000000
     47 Cl    c       0.001113      0.000802      0.000375      0.000000
     48 Cl    c      -0.000385      0.001849     -0.001339      0.000000
     49 Cl    c       0.000863      0.002523     -0.000951      0.000000
     50 Cl    c       0.002148     -0.000496      0.001949      0.000000
     51 Cl    c       0.002924     -0.000798      0.000220      0.000000
     52 Cl    c       0.000455      0.001312      0.000627      0.000000
     53 Cl    c      -0.000118      0.002042     -0.000782      0.000000
     54 Cl    c       0.000844     -0.001083     -0.002794      0.000000
  Maximum abs         0.008325      0.006501      0.005099      0.000000

  Comparison of initial and final structures :

  Parameter   Initial value   Final value   Difference    Units      Percent
    Volume      1126.065003   1085.296986   -40.768017    Angs**3     -3.62
    a             10.403700     10.237434    -0.166266    Angstroms   -1.60
    b             10.403700     10.673111     0.269411    Angstroms    2.59
    c             10.403700     10.029905    -0.373795    Angstroms   -3.59
    alpha         90.000000     82.366267    -7.633733    Degrees     -8.48
    beta          90.000000     88.460502    -1.539498    Degrees     -1.71
    gamma         90.000000     88.040677    -1.959323    Degrees     -2.18
      1 x          0.375000      0.375000     0.000000    Fractional   0.00
      1 y          0.375000      0.375000     0.000000    Fractional   0.00
      1 z          0.875000      0.875000     0.000000    Fractional   0.00
      2 x          0.500000      0.591834     0.091834    Fractional  18.37
      2 y          0.750000      0.609860     0.140140    Fractional  18.69
      2 z          0.250000      0.000254     0.249746    Fractional  99.90
      3 x          0.250000      0.268767     0.018767    Fractional   7.51
      3 y          0.750000      0.595016     0.154984    Fractional  20.66
      3 z          0.500000      0.568107     0.068107    Fractional  13.62
      4 x          0.750000      0.963375     0.213375    Fractional  28.45
      4 y          0.500000      0.318156     0.181844    Fractional  36.37
      4 z          0.250000      0.263629     0.013629    Fractional   5.45
      5 x          0.500000      0.490486     0.009514    Fractional   1.90
      5 y          0.000000      0.218912     0.218912    Fractional   0.00
      5 z          0.500000      0.609032     0.109032    Fractional  21.81
      6 x          0.875000      0.884759     0.009759    Fractional   1.12
      6 y          0.875000      0.893309     0.018309    Fractional   2.09
      6 z          0.114000      0.035039     0.078961    Fractional  69.26
      7 x          0.500000      0.549547     0.049547    Fractional   9.91
      7 y          0.500000      0.393970     0.106030    Fractional  21.21
      7 z          0.500000      0.279771     0.220229    Fractional  44.05
      8 x          0.500000      0.642285     0.142285    Fractional  28.46
      8 y          0.750000      0.919504     0.169504    Fractional  22.60
      8 z          0.750000      0.564392     0.185608    Fractional  24.75
      9 x          0.250000      0.121397     0.128603    Fractional  51.44
      9 y          0.750000      0.839176     0.089176    Fractional  11.89
      9 z          0.000000      0.801558     0.801558    Fractional   0.00
     10 x          0.250000      0.210993     0.039007    Fractional  15.60
     10 y          0.250000      0.287797     0.037797    Fractional  15.12
     10 z          0.500000      0.454108     0.045892    Fractional   9.18
     11 x          0.750000      0.816585     0.066585    Fractional   8.88
     11 y          0.250000      0.388855     0.138855    Fractional  55.54
     11 z          0.000000      0.018169     0.018169    Fractional   0.00
     12 x          0.500000      0.392703     0.107297    Fractional  21.46
     12 y          0.250000      0.096353     0.153647    Fractional  61.46
     12 z          0.250000      0.304131     0.054131    Fractional  21.65
     13 x          0.000000      0.810995     0.810995    Fractional   0.00
     13 y          0.750000      0.637870     0.112130    Fractional  14.95
     13 z          0.250000      0.232476     0.017524    Fractional   7.01
     14 x          0.750000      0.465469     0.284531    Fractional  37.94
     14 y          0.750000      0.730615     0.019385    Fractional   2.58
     14 z          0.500000      0.312690     0.187310    Fractional  37.46
     15 x          0.250000      0.350168     0.100168    Fractional  40.07
     15 y          0.000000      0.885423     0.885423    Fractional   0.00
     15 z          0.750000      0.604505     0.145495    Fractional  19.40
     16 x          0.750000      0.719657     0.030343    Fractional   4.05
     16 y          0.000000      0.109691     0.109691    Fractional   0.00
     16 z          0.250000      0.215372     0.034628    Fractional  13.85
     17 x          0.000000      0.076221     0.076221    Fractional   0.00
     17 y          0.500000      0.417601     0.082399    Fractional  16.48
     17 z          0.000000      0.799961     0.799961    Fractional   0.00
     18 x          0.250000      0.188781     0.061219    Fractional  24.49
     18 y          0.500000      0.603239     0.103239    Fractional  20.65
     18 z          0.250000      0.136203     0.113797    Fractional  45.52
     19 x          0.750000      0.659395     0.090605    Fractional  12.08
     19 y          0.500000      0.575477     0.075477    Fractional  15.10
     19 z          0.750000      0.631485     0.118515    Fractional  15.80
     20 x          0.000000      0.887133     0.887133    Fractional   0.00
     20 y          0.250000      0.198185     0.051815    Fractional  20.73
     20 z          0.750000      0.680757     0.069243    Fractional   9.23
     21 x          0.500000      0.512772     0.012772    Fractional   2.55
     21 y          0.000000      0.951612     0.951612    Fractional   0.00
     21 z          0.000000      0.935602     0.935602    Fractional   0.00
     22 x          0.000000      0.004861     0.004861    Fractional   0.00
     22 y          0.000000      0.913661     0.913661    Fractional   0.00
     22 z          0.500000      0.438300     0.061700    Fractional  12.34
     23 x          0.254350      0.155777     0.098573    Fractional  38.75
     23 y          0.254350      0.377136     0.122786    Fractional  48.27
     23 z          0.254350      0.274025     0.019675    Fractional   7.74
     24 x          0.745650      0.655403     0.090247    Fractional  12.10
     24 y          0.504350      0.562016     0.057666    Fractional  11.43
     24 z          0.504350      0.365183     0.139167    Fractional  27.59
     25 x          0.495650      0.509816     0.014166    Fractional   2.86
     25 y          0.995650      0.025591     0.029941    Fractional   3.01
     25 z          0.754350      0.661390     0.092960    Fractional  12.32
     26 x          0.004350      0.045421     0.041071    Fractional 944.16
     26 y          0.745650      0.781509     0.035859    Fractional   4.81
     26 z          0.004350      0.983377     0.020973    Fractional   2.09
     27 x          0.254350      0.307328     0.052978    Fractional  20.83
     27 y          0.995650      0.877423     0.118227    Fractional  11.87
     27 z          0.995650      0.814176     0.181474    Fractional  18.23
     28 x          0.745650      0.594228     0.151422    Fractional  20.31
     28 y          0.745650      0.751314     0.005664    Fractional   0.76
     28 z          0.745650      0.802502     0.056852    Fractional   7.62
     29 x          0.495650      0.425378     0.070272    Fractional  14.18
     29 y          0.254350      0.250008     0.004342    Fractional   1.71
     29 z          0.495650      0.408050     0.087600    Fractional  17.67
     30 x          0.004350      0.932332     0.072018    Fractional   7.17
     30 y          0.504350      0.513397     0.009047    Fractional   1.79
     30 z          0.245650      0.137395     0.108255    Fractional  44.07
     31 x          0.504350      0.511763     0.007413    Fractional   1.47
     31 y          0.745650      0.778413     0.032763    Fractional   4.39
     31 z          0.504350      0.504985     0.000635    Fractional   0.13
     32 x          0.754350      0.688370     0.065980    Fractional   8.75
     32 y          0.495650      0.487791     0.007859    Fractional   1.59
     32 z          0.995650      0.891190     0.104460    Fractional  10.49
     33 x          0.004350      0.018571     0.014221    Fractional 326.92
     33 y          0.004350      0.981214     0.023136    Fractional   2.30
     33 z          0.745650      0.687109     0.058541    Fractional   7.85
     34 x          0.995650      0.939887     0.055763    Fractional   5.60
     34 y          0.254350      0.286825     0.032475    Fractional  12.77
     34 z          0.995650      0.906441     0.089209    Fractional   8.96
     35 x          0.495650      0.442285     0.053365    Fractional  10.77
     35 y          0.495650      0.510100     0.014450    Fractional   2.92
     35 z          0.254350      0.106155     0.148195    Fractional  58.26
     36 x          0.245650      0.251041     0.005391    Fractional   2.19
     36 y          0.004350      0.987055     0.017295    Fractional   1.72
     36 z          0.504350      0.399718     0.104632    Fractional  20.75
     37 x          0.254350      0.160201     0.094149    Fractional  37.02
     37 y          0.754350      0.752902     0.001448    Fractional   0.19
     37 z          0.754350      0.598633     0.155717    Fractional  20.64
     38 x          0.504350      0.536653     0.032303    Fractional   6.40
     38 y          0.004350      0.040402     0.036052    Fractional 828.79
     38 z          0.245650      0.174491     0.071159    Fractional  28.97
     39 x          0.745650      0.739988     0.005662    Fractional   0.76
     39 y          0.245650      0.294493     0.048843    Fractional  19.88
     39 z          0.245650      0.207286     0.038364    Fractional  15.62
     40 x          0.995650      0.892009     0.103641    Fractional  10.41
     40 y          0.495650      0.455481     0.040169    Fractional   8.10
     40 z          0.754350      0.640143     0.114207    Fractional  15.14
     41 x          0.254350      0.311034     0.056684    Fractional  22.29
     41 y          0.495650      0.608106     0.112456    Fractional  22.69
     41 z          0.495650      0.369284     0.126366    Fractional  25.50
     42 x          0.745650      0.752795     0.007145    Fractional   0.96
     42 y          0.004350      0.042057     0.037707    Fractional 866.83
     42 z          0.004350      0.871392     0.132958    Fractional  13.24
     43 x          0.245650      0.198166     0.047484    Fractional  19.33
     43 y          0.504350      0.488930     0.015420    Fractional   3.06
     43 z          0.004350      0.916788     0.087562    Fractional   8.72
     44 x          0.995650      0.881675     0.113975    Fractional  11.45
     44 y          0.995650      0.989463     0.006187    Fractional   0.62
     44 z          0.254350      0.209791     0.044559    Fractional  17.52
     45 x          0.504350      0.417805     0.086545    Fractional  17.16
     45 y          0.504350      0.499076     0.005274    Fractional   1.05
     45 z          0.745650      0.681933     0.063717    Fractional   8.55
     46 x          0.754350      0.780711     0.026361    Fractional   3.49
     46 y          0.995650      0.042820     0.047170    Fractional   4.74
     46 z          0.495650      0.518117     0.022467    Fractional   4.53
     47 x          0.004350      0.000728     0.003622    Fractional   0.36
     47 y          0.245650      0.176111     0.069539    Fractional  28.31
     47 z          0.504350      0.431451     0.072899    Fractional  14.45
     48 x          0.495650      0.369663     0.125987    Fractional  25.42
     48 y          0.754350      0.792067     0.037717    Fractional   5.00
     48 z          0.995650      0.112886     0.117236    Fractional  11.77
     49 x          0.504350      0.428127     0.076223    Fractional  15.11
     49 y          0.245650      0.191666     0.053984    Fractional  21.98
     49 z          0.004350      0.889799     0.114551    Fractional  11.41
     50 x          0.995650      0.811068     0.184582    Fractional  18.54
     50 y          0.754350      0.765485     0.011135    Fractional   1.48
     50 z          0.495650      0.538862     0.043212    Fractional   8.72
     51 x          0.754350      0.658099     0.096251    Fractional  12.76
     51 y          0.254350      0.317508     0.063158    Fractional  24.83
     51 z          0.754350      0.626334     0.128016    Fractional  16.97
     52 x          0.245650      0.023177     0.222473    Fractional  90.57
     52 y          0.745650      0.726556     0.019094    Fractional   2.56
     52 z          0.245650      0.290790     0.045140    Fractional  18.38
     53 x          0.754350      0.684340     0.070010    Fractional   9.28
     53 y          0.754350      0.777574     0.023224    Fractional   3.08
     53 z          0.254350      0.082665     0.171685    Fractional  67.50
     54 x          0.245650      0.135081     0.110569    Fractional  45.01
     54 y          0.245650      0.293158     0.047508    Fractional  19.34
     54 z          0.745650      0.651497     0.094153    Fractional  12.63

  Time to end of optimisation =       7.3313 seconds

  Timing analysis for GULP :

  Task / Subroutine                                          Time (Seconds)
  Calculation of reciprocal space energy and derivatives          0.3818
  Calculation of real space energy and derivatives                6.8912
  Calculation and manipulation of Hessian matrix                  0.0014
  Calculation of matrix inversion                                 0.0245
  Symmetry generation of equivalent positions                     0.0002
  Global summation overhead                                       0.0003

  Dump file written as halospinel.grs

  Job Finished at 13:02.06 28th July       2022