  Job Started  at 13:00.57 28th July       2022

  Number of CPUs =     1

  Total number of configurations input =      1

*  Input for Configuration =   1                                               *

  Formula = Li17Sc5Cl32

  Number of irreducible atoms/shells =      86

  Total number atoms/shells =      86

  Dimensionality = 3               :  Bulk

  Cartesian lattice vectors (Angstroms) :

       10.403700    0.000000    0.000000
        0.000000   10.403700    0.000000
        0.000000    0.000000   10.403700

  Cell parameters (Angstroms/Degrees):

  a =      10.4037    alpha =  90.0000
  b =      10.4037    beta  =  90.0000
  c =      10.4037    gamma =  90.0000

  Initial cell volume =        1126.065003 Angs**3

  Temperature of configuration =   0.00     K

  Pressure of configuration =         0.000 GPa

  Fractional coordinates of asymmetric unit :

   No.  Atomic       x           y          z         Charge      Occupancy
        Label      (Frac)      (Frac)     (Frac)        (e)         (Frac)
      1 Li    c    0.375000    0.375000    0.875000     1.00000    1.000000
      2 Li    c    0.500000 *  0.750000 *  0.250000 *   1.00000    1.000000
      3 Li    c    0.250000 *  0.750000 *  0.500000 *   1.00000    1.000000
      4 Li    c    0.750000 *  0.500000 *  0.250000 *   1.00000    1.000000
      5 Li    c    0.500000 *  0.000000 *  0.500000 *   1.00000    1.000000
      6 Li    c    0.875000 *  0.875000 *  0.114000 *   1.00000    1.000000
      7 Li    c    0.500000 *  0.500000 *  0.500000 *   1.00000    1.000000
      8 Li    c    0.500000 *  0.750000 *  0.750000 *   1.00000    1.000000
      9 Li    c    0.250000 *  0.750000 *  0.000000 *   1.00000    1.000000
     10 Li    c    0.250000 *  0.250000 *  0.500000 *   1.00000    1.000000
     11 Li    c    0.750000 *  0.250000 *  0.000000 *   1.00000    1.000000
     12 Li    c    0.500000 *  0.250000 *  0.250000 *   1.00000    1.000000
     13 Li    c    0.000000 *  0.750000 *  0.250000 *   1.00000    1.000000
     14 Li    c    0.750000 *  0.750000 *  0.500000 *   1.00000    1.000000
     15 Li    c    0.250000 *  0.000000 *  0.750000 *   1.00000    1.000000
     16 Li    c    0.750000 *  0.000000 *  0.250000 *   1.00000    1.000000
     17 Li    c    0.000000 *  0.500000 *  0.000000 *   1.00000    1.000000
     18 Sc    c    0.250000 *  0.500000 *  0.250000 *   3.00000    1.000000
     19 Sc    c    0.750000 *  0.500000 *  0.750000 *   3.00000    1.000000
     20 Sc    c    0.000000 *  0.250000 *  0.750000 *   3.00000    1.000000
     21 Sc    c    0.500000 *  0.000000 *  0.000000 *   3.00000    1.000000
     22 Sc    c    0.000000 *  0.000000 *  0.500000 *   3.00000    1.000000
     23 Cl    c    0.254350 *  0.254350 *  0.254350 *   1.48500    1.000000
     24 Cl    c    0.745650 *  0.504350 *  0.504350 *   1.48500    1.000000
     25 Cl    c    0.495650 *  0.995650 *  0.754350 *   1.48500    1.000000
     26 Cl    c    0.004350 *  0.745650 *  0.004350 *   1.48500    1.000000
     27 Cl    c    0.254350 *  0.995650 *  0.995650 *   1.48500    1.000000
     28 Cl    c    0.745650 *  0.745650 *  0.745650 *   1.48500    1.000000
     29 Cl    c    0.495650 *  0.254350 *  0.495650 *   1.48500    1.000000
     30 Cl    c    0.004350 *  0.504350 *  0.245650 *   1.48500    1.000000
     31 Cl    c    0.504350 *  0.745650 *  0.504350 *   1.48500    1.000000
     32 Cl    c    0.754350 *  0.495650 *  0.995650 *   1.48500    1.000000
     33 Cl    c    0.004350 *  0.004350 *  0.745650 *   1.48500    1.000000
     34 Cl    c    0.995650 *  0.254350 *  0.995650 *   1.48500    1.000000
     35 Cl    c    0.495650 *  0.495650 *  0.254350 *   1.48500    1.000000
     36 Cl    c    0.245650 *  0.004350 *  0.504350 *   1.48500    1.000000
     37 Cl    c    0.254350 *  0.754350 *  0.754350 *   1.48500    1.000000
     38 Cl    c    0.504350 *  0.004350 *  0.245650 *   1.48500    1.000000
     39 Cl    c    0.745650 *  0.245650 *  0.245650 *   1.48500    1.000000
     40 Cl    c    0.995650 *  0.495650 *  0.754350 *   1.48500    1.000000
     41 Cl    c    0.254350 *  0.495650 *  0.495650 *   1.48500    1.000000
     42 Cl    c    0.745650 *  0.004350 *  0.004350 *   1.48500    1.000000
     43 Cl    c    0.245650 *  0.504350 *  0.004350 *   1.48500    1.000000
     44 Cl    c    0.995650 *  0.995650 *  0.254350 *   1.48500    1.000000
     45 Cl    c    0.504350 *  0.504350 *  0.745650 *   1.48500    1.000000
     46 Cl    c    0.754350 *  0.995650 *  0.495650 *   1.48500    1.000000
     47 Cl    c    0.004350 *  0.245650 *  0.504350 *   1.48500    1.000000
     48 Cl    c    0.495650 *  0.754350 *  0.995650 *   1.48500    1.000000
     49 Cl    c    0.504350 *  0.245650 *  0.004350 *   1.48500    1.000000
     50 Cl    c    0.995650 *  0.754350 *  0.495650 *   1.48500    1.000000
     51 Cl    c    0.754350 *  0.254350 *  0.754350 *   1.48500    1.000000
     52 Cl    c    0.245650 *  0.745650 *  0.245650 *   1.48500    1.000000
     53 Cl    c    0.754350 *  0.754350 *  0.254350 *   1.48500    1.000000
     54 Cl    c    0.245650 *  0.245650 *  0.745650 *   1.48500    1.000000
     55 Cl    s    0.254350 *  0.254350 *  0.254350 *  -2.48500    1.000000
     56 Cl    s    0.745650 *  0.504350 *  0.504350 *  -2.48500    1.000000
     57 Cl    s    0.495650 *  0.995650 *  0.754350 *  -2.48500    1.000000
     58 Cl    s    0.004350 *  0.745650 *  0.004350 *  -2.48500    1.000000
     59 Cl    s    0.254350 *  0.995650 *  0.995650 *  -2.48500    1.000000
     60 Cl    s    0.745650 *  0.745650 *  0.745650 *  -2.48500    1.000000
     61 Cl    s    0.495650 *  0.254350 *  0.495650 *  -2.48500    1.000000
     62 Cl    s    0.004350 *  0.504350 *  0.245650 *  -2.48500    1.000000
     63 Cl    s    0.504350 *  0.745650 *  0.504350 *  -2.48500    1.000000
     64 Cl    s    0.754350 *  0.495650 *  0.995650 *  -2.48500    1.000000
     65 Cl    s    0.004350 *  0.004350 *  0.745650 *  -2.48500    1.000000
     66 Cl    s    0.995650 *  0.254350 *  0.995650 *  -2.48500    1.000000
     67 Cl    s    0.495650 *  0.495650 *  0.254350 *  -2.48500    1.000000
     68 Cl    s    0.245650 *  0.004350 *  0.504350 *  -2.48500    1.000000
     69 Cl    s    0.254350 *  0.754350 *  0.754350 *  -2.48500    1.000000
     70 Cl    s    0.504350 *  0.004350 *  0.245650 *  -2.48500    1.000000
     71 Cl    s    0.745650 *  0.245650 *  0.245650 *  -2.48500    1.000000
     72 Cl    s    0.995650 *  0.495650 *  0.754350 *  -2.48500    1.000000
     73 Cl    s    0.254350 *  0.495650 *  0.495650 *  -2.48500    1.000000
     74 Cl    s    0.745650 *  0.004350 *  0.004350 *  -2.48500    1.000000
     75 Cl    s    0.245650 *  0.504350 *  0.004350 *  -2.48500    1.000000
     76 Cl    s    0.995650 *  0.995650 *  0.254350 *  -2.48500    1.000000
     77 Cl    s    0.504350 *  0.504350 *  0.745650 *  -2.48500    1.000000
     78 Cl    s    0.754350 *  0.995650 *  0.495650 *  -2.48500    1.000000
     79 Cl    s    0.004350 *  0.245650 *  0.504350 *  -2.48500    1.000000
     80 Cl    s    0.495650 *  0.754350 *  0.995650 *  -2.48500    1.000000
     81 Cl    s    0.504350 *  0.245650 *  0.004350 *  -2.48500    1.000000
     82 Cl    s    0.995650 *  0.754350 *  0.495650 *  -2.48500    1.000000
     83 Cl    s    0.754350 *  0.254350 *  0.754350 *  -2.48500    1.000000
     84 Cl    s    0.245650 *  0.745650 *  0.245650 *  -2.48500    1.000000
     85 Cl    s    0.754350 *  0.754350 *  0.254350 *  -2.48500    1.000000
     86 Cl    s    0.245650 *  0.245650 *  0.745650 *  -2.48500    1.000000

*  General input information                                                   *

  Species output for all configurations :

  Species    Type    Atomic    Atomic    Charge       Radii (Angs)     Library
                     Number     Mass       (e)     Cova   Ionic  VDW   Symbol
    Li       Core        3       6.94   1.000000   0.680  0.000  1.800
    Sc       Core       21      44.96   3.000000   1.440  0.000  2.150
    Cl       Core       17      35.45   1.485000   0.990  0.000  1.650
    Cl       Shell      17       0.00  -2.485000   0.990  0.000  1.650

  Lattice summation method               =    Ewald          (3-D)
                                         =    Parry          (2-D)
                                         =    Saunders et al (1-D)
  Accuracy factor for lattice sums       =   12.000

  Analytic derivatives to be used

  Time limit = Infinity

  Maximum range for interatomic potentials =    100000.000000 Angstroms

  General interatomic potentials :

Atom  Types   Potential      Parameter       Value         Units   Cutoffs(Ang)
  1     2                                                            Min /  Max
Cl   c Cl   s Spring (c-s)  Spring k 2       29.380000    eV*Ang^-2 0.000  0.800
                            Spring k 4       0.0000000    eV*Ang^-4
Li   c Li   c Buckingham    Buckingham A     360.53000    eV        0.000 12.000
                            Buckingham rho  0.16100000    Ang
                            Buckingham C     0.0000000    eV*Ang^6
Li   c Cl   s Buckingham    Buckingham A     421.04000    eV        0.000 12.000
                            Buckingham rho  0.33400000    Ang
                            Buckingham C     0.0000000    eV*Ang^6
Sc   c Cl   s Buckingham    Buckingham A     12131.350    eV        0.000 12.000
                            Buckingham rho  0.25070000    Ang
                            Buckingham C     0.0000000    eV*Ang^6
Cl   s Cl   s Buckingham    Buckingham A     1227.2000    eV        0.000 12.000
                            Buckingham rho  0.32100000    Ang
                            Buckingham C     14.530000    eV*Ang^6

*  Output for configuration   1                                                *

  Components of energy :

  Interatomic potentials     =          35.27167975 eV
  Monopole - monopole (real) =        -210.63359499 eV
  Monopole - monopole (recip)=        -187.01293127 eV
  Monopole - monopole (total)=        -397.64652626 eV
  Total lattice energy       =        -362.37484651 eV
  Total lattice energy       =          -34963.6333 kJ/(mole unit cells)

  Number of variables =      261

  Maximum number of calculations  =          1000
  Maximum Hessian update interval =            10
  Maximum step size               =   1.000000000
  Maximum parameter tolerance     =   0.000010000
  Maximum function  tolerance     =   0.000010000
  Maximum gradient  tolerance     =   0.001000000
  Maximum gradient  component     =   0.010000000

  Symmetry not applied to optimisation

  Cell parameters to be optimised using strains

  Newton-Raphson optimiser to be used

  BFGS hessian update to be used

  Lower half triangular hessian to be used

  Start of bulk optimisation :

  ** Hessian calculated **
  ** Hessian calculated **
  ** Hessian calculated **
  ** Hessian calculated **
  ** Hessian calculated **
  ** Hessian calculated **
  ** Hessian calculated **
  ** Hessian calculated **
  ** Hessian calculated **
  ** Hessian calculated **
  ** Hessian calculated **
  ** Hessian calculated **
  ** Hessian calculated **
  ** Hessian calculated **
  ** Hessian calculated **
[...]
     16 y          0.000000      0.133005     0.133005    Fractional   0.00
     16 z          0.250000      0.109307     0.140693    Fractional  56.28
     17 x          0.000000      0.125964     0.125964    Fractional   0.00
     17 y          0.500000      0.639771     0.139771    Fractional  27.95
     17 z          0.000000      0.882661     0.882661    Fractional   0.00
     18 x          0.250000      0.376254     0.126254    Fractional  50.50
     18 y          0.500000      0.625419     0.125419    Fractional  25.08
     18 z          0.250000      0.128673     0.121327    Fractional  48.53
     19 x          0.750000      0.876269     0.126269    Fractional  16.84
     19 y          0.500000      0.628928     0.128928    Fractional  25.79
     19 z          0.750000      0.608716     0.141284    Fractional  18.84
     20 x          0.000000      0.120395     0.120395    Fractional   0.00
     20 y          0.250000      0.378873     0.128873    Fractional  51.55
     20 z          0.750000      0.617400     0.132600    Fractional  17.68
     21 x          0.500000      0.626675     0.126675    Fractional  25.34
     21 y          0.000000      0.126209     0.126209    Fractional   0.00
     21 z          0.000000      0.868990     0.868990    Fractional   0.00
     22 x          0.000000      0.122665     0.122665    Fractional   0.00
     22 y          0.000000      0.125776     0.125776    Fractional   0.00
     22 z          0.500000      0.368923     0.131077    Fractional  26.22
     23 x          0.254350      0.376627     0.122277    Fractional  48.07
     23 y          0.254350      0.389465     0.135115    Fractional  53.12
     23 z          0.254350      0.120366     0.133984    Fractional  52.68
     24 x          0.745650      0.868736     0.123086    Fractional  16.51
     24 y          0.504350      0.638357     0.134007    Fractional  26.57
     24 z          0.504350      0.372160     0.132190    Fractional  26.21
     25 x          0.495650      0.623940     0.128290    Fractional  25.88
     25 y          0.995650      0.121097     0.125447    Fractional  12.60
     25 z          0.754350      0.633380     0.120970    Fractional  16.04
     26 x          0.004350      0.128649     0.124299    Fractional2857.44
     26 y          0.745650      0.865341     0.119691    Fractional  16.05
     26 z          0.004350      0.884037     0.120313    Fractional  11.98
     27 x          0.254350      0.389443     0.135093    Fractional  53.11
     27 y          0.995650      0.126044     0.130394    Fractional  13.10
     27 z          0.995650      0.867089     0.128561    Fractional  12.91
     28 x          0.745650      0.876520     0.130870    Fractional  17.55
     28 y          0.745650      0.864114     0.118464    Fractional  15.89
     28 z          0.745650      0.616059     0.129591    Fractional  17.38
     29 x          0.495650      0.614978     0.119328    Fractional  24.08
     29 y          0.254350      0.355697     0.101347    Fractional  39.85
     29 z          0.495650      0.356253     0.139397    Fractional  28.12
     30 x          0.004350      0.140776     0.136426    Fractional3136.23
     30 y          0.504350      0.637056     0.132706    Fractional  26.31
     30 z          0.245650      0.128627     0.117023    Fractional  47.64
     31 x          0.504350      0.633824     0.129474    Fractional  25.67
     31 y          0.745650      0.910854     0.165204    Fractional  22.16
     31 z          0.504350      0.367608     0.136742    Fractional  27.11
     32 x          0.754350      0.886311     0.131961    Fractional  17.49
     32 y          0.495650      0.627556     0.131906    Fractional  26.61
     32 z          0.995650      0.845526     0.150124    Fractional  15.08
     33 x          0.004350      0.105812     0.101462    Fractional2332.47
     33 y          0.004350      0.140834     0.136484    Fractional3137.56
     33 z          0.745650      0.609331     0.136319    Fractional  18.28
     34 x          0.995650      0.119358     0.123708    Fractional  12.42
     34 y          0.254350      0.385488     0.131138    Fractional  51.56
     34 z          0.995650      0.853234     0.142416    Fractional  14.30
     35 x          0.495650      0.613426     0.117776    Fractional  23.76
     35 y          0.495650      0.627685     0.132035    Fractional  26.64
     35 z          0.254350      0.135243     0.119107    Fractional  46.83
     36 x          0.245650      0.357402     0.111752    Fractional  45.49
     36 y          0.004350      0.125476     0.121126    Fractional2784.50
     36 z          0.504350      0.386467     0.117883    Fractional  23.37
     37 x          0.254350      0.391971     0.137621    Fractional  54.11
     37 y          0.754350      0.882332     0.127982    Fractional  16.97
     37 z          0.754350      0.617987     0.136363    Fractional  18.08
     38 x          0.504350      0.631550     0.127200    Fractional  25.22
     38 y          0.004350      0.123646     0.119296    Fractional2742.45
     38 z          0.245650      0.106439     0.139211    Fractional  56.67
     39 x          0.745650      0.862998     0.117348    Fractional  15.74
     39 y          0.245650      0.371759     0.126109    Fractional  51.34
     39 z          0.245650      0.105201     0.140449    Fractional  57.17
     40 x          0.995650      0.116518     0.120868    Fractional  12.14
     40 y          0.495650      0.616597     0.120947    Fractional  24.40
     40 z          0.754350      0.596027     0.158323    Fractional  20.99
     41 x          0.254350      0.378745     0.124395    Fractional  48.91
     41 y          0.495650      0.617641     0.121991    Fractional  24.61
     41 z          0.495650      0.367116     0.128534    Fractional  25.93
     42 x          0.745650      0.863076     0.117426    Fractional  15.75
     42 y          0.004350      0.133451     0.129101    Fractional2967.84
     42 z          0.004350      0.863712     0.140638    Fractional  14.00
     43 x          0.245650      0.369048     0.123398    Fractional  50.23
     43 y          0.504350      0.624435     0.120085    Fractional  23.81
     43 z          0.004350      0.890817     0.113533    Fractional  11.30
     44 x          0.995650      0.128913     0.133263    Fractional  13.38
     44 y          0.995650      0.136519     0.140869    Fractional  14.15
     44 z          0.254350      0.133572     0.120778    Fractional  47.48
     45 x          0.504350      0.641193     0.136843    Fractional  27.13
     45 y          0.504350      0.623962     0.119612    Fractional  23.72
     45 z          0.745650      0.606269     0.139381    Fractional  18.69
     46 x          0.754350      0.889584     0.135234    Fractional  17.93
     46 y          0.995650      0.128597     0.132947    Fractional  13.35
     46 z          0.495650      0.362992     0.132658    Fractional  26.76
     47 x          0.004350      0.134508     0.130158    Fractional2992.15
     47 y          0.245650      0.366529     0.120879    Fractional  49.21
     47 z          0.504350      0.376623     0.127727    Fractional  25.33
     48 x          0.495650      0.629698     0.134048    Fractional  27.04
     48 y          0.754350      0.889484     0.135134    Fractional  17.91
     48 z          0.995650      0.872444     0.123206    Fractional  12.37
     49 x          0.504350      0.619544     0.115194    Fractional  22.84
     49 y          0.245650      0.362431     0.116781    Fractional  47.54
     49 z          0.004350      0.876477     0.127873    Fractional  12.73
     50 x          0.995650      0.124611     0.128961    Fractional  12.95
     50 y          0.754350      0.890570     0.136220    Fractional  18.06
     50 z          0.495650      0.367965     0.127685    Fractional  25.76
     51 x          0.754350      0.881406     0.127056    Fractional  16.84
     51 y          0.254350      0.388207     0.133857    Fractional  52.63
     51 z          0.754350      0.608054     0.146296    Fractional  19.39
     52 x          0.245650      0.380667     0.135017    Fractional  54.96
     52 y          0.745650      0.861690     0.116040    Fractional  15.56
     52 z          0.245650      0.135207     0.110443    Fractional  44.96
     53 x          0.754350      0.879107     0.124757    Fractional  16.54
     53 y          0.754350      0.891099     0.136749    Fractional  18.13
     53 z          0.254350      0.114576     0.139774    Fractional  54.95
     54 x          0.245650      0.355019     0.109369    Fractional  44.52
     54 y          0.245650      0.372554     0.126904    Fractional  51.66
     54 z          0.745650      0.622523     0.123127    Fractional  16.51
     55 x          0.254350      0.380683     0.126333    Fractional  49.67
     55 y          0.254350      0.407152     0.152802    Fractional  60.08
     55 z          0.254350      0.120349     0.134001    Fractional  52.68
     56 x          0.745650      0.868818     0.123168    Fractional  16.52
     56 y          0.504350      0.636908     0.132558    Fractional  26.28
     56 z          0.504350      0.385369     0.118981    Fractional  23.59
     57 x          0.495650      0.619291     0.123641    Fractional  24.95
     57 y          0.995650      0.117658     0.122008    Fractional  12.25
     57 z          0.754350      0.645722     0.108628    Fractional  14.40
     58 x          0.004350      0.128843     0.124493    Fractional2861.90
     58 y          0.745650      0.859851     0.114201    Fractional  15.32
     58 z          0.004350      0.889259     0.115091    Fractional  11.46
     59 x          0.254350      0.405999     0.151649    Fractional  59.62
     59 y          0.995650      0.126632     0.130982    Fractional  13.16
     59 z          0.995650      0.860726     0.134924    Fractional  13.55
     60 x          0.745650      0.872645     0.126995    Fractional  17.03
     60 y          0.745650      0.845861     0.100211    Fractional  13.44
     60 z          0.745650      0.616159     0.129491    Fractional  17.37
     61 x          0.495650      0.608348     0.112698    Fractional  22.74
     61 y          0.254350      0.354322     0.099972    Fractional  39.30
     61 z          0.495650      0.352118     0.143532    Fractional  28.96
     62 x          0.004350      0.152517     0.148167    Fractional3406.14
     62 y          0.504350      0.634705     0.130355    Fractional  25.85
     62 z          0.245650      0.126922     0.118728    Fractional  48.33
     63 x          0.504350      0.636657     0.132307    Fractional  26.23
     63 y          0.745650      0.913968     0.168318    Fractional  22.57
     63 z          0.504350      0.367385     0.136965    Fractional  27.16
     64 x          0.754350      0.890970     0.136620    Fractional  18.11
     64 y          0.495650      0.625999     0.130349    Fractional  26.30
     64 z          0.995650      0.829016     0.166634    Fractional  16.74
     65 x          0.004350      0.111254     0.106904    Fractional2457.55
     65 y          0.004350      0.158021     0.153671    Fractional3532.68
     65 z          0.745650      0.592781     0.152869    Fractional  20.50
     66 x          0.995650      0.119312     0.123662    Fractional  12.42
     66 y          0.254350      0.389090     0.134740    Fractional  52.97
     66 z          0.995650      0.834667     0.160983    Fractional  16.17
     67 x          0.495650      0.597177     0.101527    Fractional  20.48
     67 y          0.495650      0.627433     0.131783    Fractional  26.59
     67 z          0.254350      0.139900     0.114450    Fractional  45.00
     68 x          0.245650      0.342300     0.096650    Fractional  39.34
     68 y          0.004350      0.127024     0.122674    Fractional2820.09
     68 z          0.504350      0.390454     0.113896    Fractional  22.58
     69 x          0.254350      0.396222     0.141872    Fractional  55.78
     69 y          0.754350      0.887677     0.133327    Fractional  17.67
     69 z          0.754350      0.617725     0.136625    Fractional  18.11
     70 x          0.504350      0.635269     0.130919    Fractional  25.96
     70 y          0.004350      0.123682     0.119332    Fractional2743.27
     70 z          0.245650      0.091978     0.153672    Fractional  62.56
     71 x          0.745650      0.863700     0.118050    Fractional  15.83
     71 y          0.245650      0.373905     0.128255    Fractional  52.21
     71 z          0.245650      0.103457     0.142193    Fractional  57.88
     72 x          0.995650      0.099921     0.104271    Fractional  10.47
     72 y          0.495650      0.599199     0.103549    Fractional  20.89
     72 z          0.754350      0.600801     0.153549    Fractional  20.36
     73 x          0.254350      0.383460     0.129110    Fractional  50.76
     73 y          0.495650      0.618031     0.122381    Fractional  24.69
     73 z          0.495650      0.350176     0.145474    Fractional  29.35
     74 x          0.745650      0.846631     0.100981    Fractional  13.54
     74 y          0.004350      0.132362     0.128012    Fractional2942.80
     74 z          0.004350      0.869345     0.135005    Fractional  13.44
     75 x          0.245650      0.363919     0.118269    Fractional  48.15
     75 y          0.504350      0.624568     0.120218    Fractional  23.84
     75 z          0.004350      0.907472     0.096878    Fractional   9.65
     76 x          0.995650      0.122536     0.126886    Fractional  12.74
     76 y          0.995650      0.130581     0.134931    Fractional  13.55
     76 z          0.254350      0.152319     0.102031    Fractional  40.11
     77 x          0.504350      0.659589     0.155239    Fractional  30.78
     77 y          0.504350      0.628539     0.124189    Fractional  24.62
     77 z          0.745650      0.599252     0.146398    Fractional  19.63
     78 x          0.754350      0.902784     0.148434    Fractional  19.68
     78 y          0.995650      0.123872     0.128222    Fractional  12.88
     78 z          0.495650      0.359947     0.135703    Fractional  27.38
     79 x          0.004350      0.133111     0.128761    Fractional2960.03
     79 y          0.245650      0.353652     0.108002    Fractional  43.97
     79 z          0.504350      0.390471     0.113879    Fractional  22.58
     80 x          0.495650      0.629947     0.134297    Fractional  27.10
     80 y          0.754350      0.906664     0.152314    Fractional  20.19
     80 z          0.995650      0.872452     0.123198    Fractional  12.37
     81 x          0.504350      0.619776     0.115426    Fractional  22.89
     81 y          0.245650      0.345118     0.099468    Fractional  40.49
     81 z          0.004350      0.880774     0.123576    Fractional  12.30
     82 x          0.995650      0.125253     0.129603    Fractional  13.02
     82 y          0.754350      0.909015     0.154665    Fractional  20.50
     82 z          0.495650      0.364340     0.131310    Fractional  26.49
     83 x          0.754350      0.899372     0.145022    Fractional  19.22
     83 y          0.254350      0.404739     0.150389    Fractional  59.13
     83 z          0.754350      0.611808     0.142542    Fractional  18.90
     84 x          0.245650      0.380090     0.134440    Fractional  54.73
     84 y          0.745650      0.844147     0.098497    Fractional  13.21
     84 z          0.245650      0.136246     0.109404    Fractional  44.54
     85 x          0.754350      0.878724     0.124374    Fractional  16.49
     85 y          0.754350      0.895097     0.140747    Fractional  18.66
     85 z          0.254350      0.115359     0.138991    Fractional  54.65
     86 x          0.245650      0.336483     0.090833    Fractional  36.98
     86 y          0.245650      0.369383     0.123733    Fractional  50.37
     86 z          0.745650      0.622212     0.123438    Fractional  16.55

  Time to end of optimisation =      45.6861 seconds

  Timing analysis for GULP :

  Task / Subroutine                                          Time (Seconds)
  Calculation of reciprocal space energy and derivatives          2.7451
  Calculation of real space energy and derivatives               42.4520
  Calculation and manipulation of Hessian matrix                  0.0109
  Calculation of matrix inversion                                 0.3138
  Symmetry generation of equivalent positions                     0.0001
  Global summation overhead                                       0.0012

  Dump file written as halospinel.grs

  Job Finished at 13:01.43 28th July       2022