  Job Started  at 13:01.49 28th July       2022

  Number of CPUs =     1

  Total number of configurations input =      1

*  Input for Configuration =   1                                               *

  Formula = Li17Sc5Cl32

  Number of irreducible atoms/shells =      86

  Total number atoms/shells =      86

  Dimensionality = 3               :  Bulk

  Cartesian lattice vectors (Angstroms) :

       10.403700    0.000000    0.000000
        0.000000   10.403700    0.000000
        0.000000    0.000000   10.403700

  Cell parameters (Angstroms/Degrees):

  a =      10.4037    alpha =  90.0000
  b =      10.4037    beta  =  90.0000
  c =      10.4037    gamma =  90.0000

  Initial cell volume =        1126.065003 Angs**3

  Temperature of configuration =   0.00     K

  Pressure of configuration =         0.000 GPa

  Fractional coordinates of asymmetric unit :

   No.  Atomic       x           y          z         Charge      Occupancy
        Label      (Frac)      (Frac)     (Frac)        (e)         (Frac)
      1 Li    c    0.375000    0.375000    0.875000     1.00000    1.000000
      2 Li    c    0.500000 *  0.750000 *  0.250000 *   1.00000    1.000000
      3 Li    c    0.250000 *  0.750000 *  0.500000 *   1.00000    1.000000
      4 Li    c    0.750000 *  0.500000 *  0.250000 *   1.00000    1.000000
      5 Li    c    0.500000 *  0.000000 *  0.500000 *   1.00000    1.000000
      6 Li    c    0.875000 *  0.875000 *  0.114000 *   1.00000    1.000000
      7 Li    c    0.500000 *  0.500000 *  0.500000 *   1.00000    1.000000
      8 Li    c    0.500000 *  0.750000 *  0.750000 *   1.00000    1.000000
      9 Li    c    0.250000 *  0.750000 *  0.000000 *   1.00000    1.000000
     10 Li    c    0.250000 *  0.250000 *  0.500000 *   1.00000    1.000000
     11 Li    c    0.750000 *  0.250000 *  0.000000 *   1.00000    1.000000
     12 Li    c    0.500000 *  0.250000 *  0.250000 *   1.00000    1.000000
     13 Li    c    0.000000 *  0.750000 *  0.250000 *   1.00000    1.000000
     14 Li    c    0.750000 *  0.750000 *  0.500000 *   1.00000    1.000000
     15 Li    c    0.250000 *  0.000000 *  0.750000 *   1.00000    1.000000
     16 Li    c    0.750000 *  0.000000 *  0.250000 *   1.00000    1.000000
     17 Li    c    0.000000 *  0.500000 *  0.000000 *   1.00000    1.000000
     18 Sc    c    0.250000 *  0.500000 *  0.250000 *   3.00000    1.000000
     19 Sc    c    0.750000 *  0.500000 *  0.750000 *   3.00000    1.000000
     20 Sc    c    0.000000 *  0.250000 *  0.750000 *   3.00000    1.000000
     21 Sc    c    0.500000 *  0.000000 *  0.000000 *   3.00000    1.000000
     22 Sc    c    0.000000 *  0.000000 *  0.500000 *   3.00000    1.000000
     23 Cl    c    0.254350 *  0.254350 *  0.254350 *   1.48500    1.000000
     24 Cl    c    0.745650 *  0.504350 *  0.504350 *   1.48500    1.000000
     25 Cl    c    0.495650 *  0.995650 *  0.754350 *   1.48500    1.000000
     26 Cl    c    0.004350 *  0.745650 *  0.004350 *   1.48500    1.000000
     27 Cl    c    0.254350 *  0.995650 *  0.995650 *   1.48500    1.000000
     28 Cl    c    0.745650 *  0.745650 *  0.745650 *   1.48500    1.000000
     29 Cl    c    0.495650 *  0.254350 *  0.495650 *   1.48500    1.000000
     30 Cl    c    0.004350 *  0.504350 *  0.245650 *   1.48500    1.000000
     31 Cl    c    0.504350 *  0.745650 *  0.504350 *   1.48500    1.000000
     32 Cl    c    0.754350 *  0.495650 *  0.995650 *   1.48500    1.000000
     33 Cl    c    0.004350 *  0.004350 *  0.745650 *   1.48500    1.000000
     34 Cl    c    0.995650 *  0.254350 *  0.995650 *   1.48500    1.000000
     35 Cl    c    0.495650 *  0.495650 *  0.254350 *   1.48500    1.000000
     36 Cl    c    0.245650 *  0.004350 *  0.504350 *   1.48500    1.000000
     37 Cl    c    0.254350 *  0.754350 *  0.754350 *   1.48500    1.000000
     38 Cl    c    0.504350 *  0.004350 *  0.245650 *   1.48500    1.000000
     39 Cl    c    0.745650 *  0.245650 *  0.245650 *   1.48500    1.000000
     40 Cl    c    0.995650 *  0.495650 *  0.754350 *   1.48500    1.000000
     41 Cl    c    0.254350 *  0.495650 *  0.495650 *   1.48500    1.000000
     42 Cl    c    0.745650 *  0.004350 *  0.004350 *   1.48500    1.000000
     43 Cl    c    0.245650 *  0.504350 *  0.004350 *   1.48500    1.000000
     44 Cl    c    0.995650 *  0.995650 *  0.254350 *   1.48500    1.000000
     45 Cl    c    0.504350 *  0.504350 *  0.745650 *   1.48500    1.000000
     46 Cl    c    0.754350 *  0.995650 *  0.495650 *   1.48500    1.000000
     47 Cl    c    0.004350 *  0.245650 *  0.504350 *   1.48500    1.000000
     48 Cl    c    0.495650 *  0.754350 *  0.995650 *   1.48500    1.000000
     49 Cl    c    0.504350 *  0.245650 *  0.004350 *   1.48500    1.000000
     50 Cl    c    0.995650 *  0.754350 *  0.495650 *   1.48500    1.000000
     51 Cl    c    0.754350 *  0.254350 *  0.754350 *   1.48500    1.000000
     52 Cl    c    0.245650 *  0.745650 *  0.245650 *   1.48500    1.000000
     53 Cl    c    0.754350 *  0.754350 *  0.254350 *   1.48500    1.000000
     54 Cl    c    0.245650 *  0.245650 *  0.745650 *   1.48500    1.000000
     55 Cl    s    0.254350 *  0.254350 *  0.254350 *  -2.48500    1.000000
     56 Cl    s    0.745650 *  0.504350 *  0.504350 *  -2.48500    1.000000
     57 Cl    s    0.495650 *  0.995650 *  0.754350 *  -2.48500    1.000000
     58 Cl    s    0.004350 *  0.745650 *  0.004350 *  -2.48500    1.000000
     59 Cl    s    0.254350 *  0.995650 *  0.995650 *  -2.48500    1.000000
     60 Cl    s    0.745650 *  0.745650 *  0.745650 *  -2.48500    1.000000
     61 Cl    s    0.495650 *  0.254350 *  0.495650 *  -2.48500    1.000000
     62 Cl    s    0.004350 *  0.504350 *  0.245650 *  -2.48500    1.000000
     63 Cl    s    0.504350 *  0.745650 *  0.504350 *  -2.48500    1.000000
     64 Cl    s    0.754350 *  0.495650 *  0.995650 *  -2.48500    1.000000
     65 Cl    s    0.004350 *  0.004350 *  0.745650 *  -2.48500    1.000000
     66 Cl    s    0.995650 *  0.254350 *  0.995650 *  -2.48500    1.000000
     67 Cl    s    0.495650 *  0.495650 *  0.254350 *  -2.48500    1.000000
     68 Cl    s    0.245650 *  0.004350 *  0.504350 *  -2.48500    1.000000
     69 Cl    s    0.254350 *  0.754350 *  0.754350 *  -2.48500    1.000000
     70 Cl    s    0.504350 *  0.004350 *  0.245650 *  -2.48500    1.000000
     71 Cl    s    0.745650 *  0.245650 *  0.245650 *  -2.48500    1.000000
     72 Cl    s    0.995650 *  0.495650 *  0.754350 *  -2.48500    1.000000
     73 Cl    s    0.254350 *  0.495650 *  0.495650 *  -2.48500    1.000000
     74 Cl    s    0.745650 *  0.004350 *  0.004350 *  -2.48500    1.000000
     75 Cl    s    0.245650 *  0.504350 *  0.004350 *  -2.48500    1.000000
     76 Cl    s    0.995650 *  0.995650 *  0.254350 *  -2.48500    1.000000
     77 Cl    s    0.504350 *  0.504350 *  0.745650 *  -2.48500    1.000000
     78 Cl    s    0.754350 *  0.995650 *  0.495650 *  -2.48500    1.000000
     79 Cl    s    0.004350 *  0.245650 *  0.504350 *  -2.48500    1.000000
     80 Cl    s    0.495650 *  0.754350 *  0.995650 *  -2.48500    1.000000
     81 Cl    s    0.504350 *  0.245650 *  0.004350 *  -2.48500    1.000000
     82 Cl    s    0.995650 *  0.754350 *  0.495650 *  -2.48500    1.000000
     83 Cl    s    0.754350 *  0.254350 *  0.754350 *  -2.48500    1.000000
     84 Cl    s    0.245650 *  0.745650 *  0.245650 *  -2.48500    1.000000
     85 Cl    s    0.754350 *  0.754350 *  0.254350 *  -2.48500    1.000000
     86 Cl    s    0.245650 *  0.245650 *  0.745650 *  -2.48500    1.000000

*  General input information                                                   *

  Species output for all configurations :

  Species    Type    Atomic    Atomic    Charge       Radii (Angs)     Library
                     Number     Mass       (e)     Cova   Ionic  VDW   Symbol
    Li       Core        3       6.94   1.000000   0.680  0.000  1.800
    Sc       Core       21      44.96   3.000000   1.440  0.000  2.150
    Cl       Core       17      35.45   1.485000   0.990  0.000  1.650
    Cl       Shell      17       0.00  -2.485000   0.990  0.000  1.650

  Lattice summation method               =    Ewald          (3-D)
                                         =    Parry          (2-D)
                                         =    Saunders et al (1-D)
  Accuracy factor for lattice sums       =   12.000

  Analytic derivatives to be used

  Time limit = Infinity

  Maximum range for interatomic potentials =    100000.000000 Angstroms

  General interatomic potentials :

Atom  Types   Potential      Parameter       Value         Units   Cutoffs(Ang)
  1     2                                                            Min /  Max
Cl   c Cl   s Spring (c-s)  Spring k 2       36.070000    eV*Ang^-2 0.000  0.800
                            Spring k 4       0.0000000    eV*Ang^-4
Li   c Li   c Buckingham    Buckingham A     360.53000    eV        0.000 12.000
                            Buckingham rho  0.16100000    Ang
                            Buckingham C     0.0000000    eV*Ang^6
Li   c Cl   s Buckingham    Buckingham A     421.04000    eV        0.000 12.000
                            Buckingham rho  0.33400000    Ang
                            Buckingham C     0.0000000    eV*Ang^6
Sc   c Cl   s Buckingham    Buckingham A     2456.2200    eV        0.000 12.000
                            Buckingham rho  0.31470000    Ang
                            Buckingham C     0.0000000    eV*Ang^6
Cl   s Cl   s Buckingham    Buckingham A     1227.2000    eV        0.000 12.000
                            Buckingham rho  0.32100000    Ang
                            Buckingham C     14.530000    eV*Ang^6

*  Output for configuration   1                                                *

  Components of energy :

  Interatomic potentials     =          43.60961917 eV
  Monopole - monopole (real) =        -210.63359499 eV
  Monopole - monopole (recip)=        -187.01293127 eV
  Monopole - monopole (total)=        -397.64652626 eV
  Total lattice energy       =        -354.03690709 eV
  Total lattice energy       =          -34159.1496 kJ/(mole unit cells)

  Number of variables =      261

  Maximum number of calculations  =          1000
  Maximum Hessian update interval =            10
  Maximum step size               =   1.000000000
  Maximum parameter tolerance     =   0.000010000
  Maximum function  tolerance     =   0.000010000
  Maximum gradient  tolerance     =   0.001000000
  Maximum gradient  component     =   0.010000000

  Symmetry not applied to optimisation

  Cell parameters to be optimised using strains

  Newton-Raphson optimiser to be used

  BFGS hessian update to be used

  Lower half triangular hessian to be used

  Start of bulk optimisation :

  ** Hessian calculated **
  ** Hessian calculated **
  ** Hessian calculated **
  ** Hessian calculated **

  **** Optimisation achieved ****

  Final energy =    -382.04102475 eV
  Final Gnorm  =       0.00011211

  Components of energy :

  Interatomic potentials     =          72.54061922 eV
  Monopole - monopole (real) =         194.19458300 eV
  Monopole - monopole (recip)=        -648.77622698 eV
[...]
     16 y          0.000000      0.012786     0.012786    Fractional   0.00
     16 z          0.250000      0.225068     0.024932    Fractional   9.97
     17 x          0.000000      0.998404     0.998404    Fractional   0.00
     17 y          0.500000      0.516748     0.016748    Fractional   3.35
     17 z          0.000000      0.991511     0.991511    Fractional   0.00
     18 x          0.250000      0.254948     0.004948    Fractional   1.98
     18 y          0.500000      0.501208     0.001208    Fractional   0.24
     18 z          0.250000      0.230287     0.019713    Fractional   7.89
     19 x          0.750000      0.751353     0.001353    Fractional   0.18
     19 y          0.500000      0.507701     0.007701    Fractional   1.54
     19 z          0.750000      0.724173     0.025827    Fractional   3.44
     20 x          0.000000      0.010841     0.010841    Fractional   0.00
     20 y          0.250000      0.257817     0.007817    Fractional   3.13
     20 z          0.750000      0.735058     0.014942    Fractional   1.99
     21 x          0.500000      0.505173     0.005173    Fractional   1.03
     21 y          0.000000      0.009467     0.009467    Fractional   0.00
     21 z          0.000000      0.976437     0.976437    Fractional   0.00
     22 x          0.000000      0.000403     0.000403    Fractional   0.00
     22 y          0.000000      0.000739     0.000739    Fractional   0.00
     22 z          0.500000      0.478755     0.021245    Fractional   4.25
     23 x          0.254350      0.267560     0.013210    Fractional   5.19
     23 y          0.254350      0.273477     0.019127    Fractional   7.52
     23 z          0.254350      0.235849     0.018501    Fractional   7.27
     24 x          0.745650      0.751320     0.005670    Fractional   0.76
     24 y          0.504350      0.508535     0.004185    Fractional   0.83
     24 z          0.504350      0.490854     0.013496    Fractional   2.68
     25 x          0.495650      0.508851     0.013201    Fractional   2.66
     25 y          0.995650      0.004990     0.009340    Fractional   0.94
     25 z          0.754350      0.739077     0.015273    Fractional   2.02
     26 x          0.004350      0.999533     0.004817    Fractional   0.48
     26 y          0.745650      0.738062     0.007588    Fractional   1.02
     26 z          0.004350      0.997518     0.006832    Fractional   0.68
     27 x          0.254350      0.272721     0.018371    Fractional   7.22
     27 y          0.995650      0.996395     0.000745    Fractional   0.07
     27 z          0.995650      0.959530     0.036120    Fractional   3.63
     28 x          0.745650      0.744452     0.001198    Fractional   0.16
     28 y          0.745650      0.735341     0.010309    Fractional   1.38
     28 z          0.745650      0.722647     0.023003    Fractional   3.08
     29 x          0.495650      0.501117     0.005467    Fractional   1.10
     29 y          0.254350      0.266602     0.012252    Fractional   4.82
     29 z          0.495650      0.471393     0.024257    Fractional   4.89
     30 x          0.004350      0.018172     0.013822    Fractional 317.76
     30 y          0.504350      0.508591     0.004241    Fractional   0.84
     30 z          0.245650      0.228555     0.017095    Fractional   6.96
     31 x          0.504350      0.507329     0.002979    Fractional   0.59
     31 y          0.745650      0.731070     0.014580    Fractional   1.96
     31 z          0.504350      0.477366     0.026984    Fractional   5.35
     32 x          0.754350      0.763015     0.008665    Fractional   1.15
     32 y          0.495650      0.503389     0.007739    Fractional   1.56
     32 z          0.995650      0.955465     0.040185    Fractional   4.04
     33 x          0.004350      0.994143     0.010207    Fractional   1.02
     33 y          0.004350      0.025783     0.021433    Fractional 492.71
     33 z          0.745650      0.720196     0.025454    Fractional   3.41
     34 x          0.995650      0.996058     0.000408    Fractional   0.04
     34 y          0.254350      0.273475     0.019125    Fractional   7.52
     34 z          0.995650      0.962743     0.032907    Fractional   3.31
     35 x          0.495650      0.491166     0.004484    Fractional   0.90
     35 y          0.495650      0.510433     0.014783    Fractional   2.98
     35 z          0.254350      0.228212     0.026138    Fractional  10.28
     36 x          0.245650      0.233204     0.012446    Fractional   5.07
     36 y          0.004350      0.008977     0.004627    Fractional 106.38
     36 z          0.504350      0.496134     0.008216    Fractional   1.63
     37 x          0.254350      0.275342     0.020992    Fractional   8.25
     37 y          0.754350      0.766244     0.011894    Fractional   1.58
     37 z          0.754350      0.724155     0.030195    Fractional   4.00
     38 x          0.504350      0.507455     0.003105    Fractional   0.62
     38 y          0.004350      0.006922     0.002572    Fractional  59.13
     38 z          0.245650      0.210457     0.035193    Fractional  14.33
     39 x          0.745650      0.742808     0.002842    Fractional   0.38
     39 y          0.245650      0.245970     0.000320    Fractional   0.13
     39 z          0.245650      0.226553     0.019097    Fractional   7.77
     40 x          0.995650      0.993082     0.002568    Fractional   0.26
     40 y          0.495650      0.489988     0.005662    Fractional   1.14
     40 z          0.754350      0.712211     0.042139    Fractional   5.59
     41 x          0.254350      0.255601     0.001251    Fractional   0.49
     41 y          0.495650      0.498696     0.003046    Fractional   0.61
     41 z          0.495650      0.466366     0.029284    Fractional   5.91
     42 x          0.745650      0.742251     0.003399    Fractional   0.46
     42 y          0.004350      0.016572     0.012222    Fractional 280.97
     42 z          0.004350      0.977828     0.026522    Fractional   2.64
     43 x          0.245650      0.245494     0.000156    Fractional   0.06
     43 y          0.504350      0.516781     0.012431    Fractional   2.46
     43 z          0.004350      0.994585     0.009765    Fractional   0.97
     44 x          0.995650      0.995760     0.000110    Fractional   0.01
     44 y          0.995650      0.011232     0.015582    Fractional   1.57
     44 z          0.254350      0.249096     0.005254    Fractional   2.07
     45 x          0.504350      0.517981     0.013631    Fractional   2.70
     45 y          0.504350      0.494191     0.010159    Fractional   2.01
     45 z          0.745650      0.723356     0.022294    Fractional   2.99
     46 x          0.754350      0.765638     0.011288    Fractional   1.50
     46 y          0.995650      0.996685     0.001035    Fractional   0.10
     46 z          0.495650      0.483635     0.012015    Fractional   2.42
     47 x          0.004350      0.007671     0.003321    Fractional  76.35
     47 y          0.245650      0.241210     0.004440    Fractional   1.81
     47 z          0.504350      0.493939     0.010411    Fractional   2.06
     48 x          0.495650      0.518964     0.023314    Fractional   4.70
     48 y          0.754350      0.778459     0.024109    Fractional   3.20
     48 z          0.995650      0.976353     0.019297    Fractional   1.94
     49 x          0.504350      0.517782     0.013432    Fractional   2.66
     49 y          0.245650      0.240776     0.004874    Fractional   1.98
     49 z          0.004350      0.981692     0.022658    Fractional   2.26
     50 x          0.995650      0.001440     0.005790    Fractional   0.58
     50 y          0.754350      0.772504     0.018154    Fractional   2.41
     50 z          0.495650      0.475347     0.020303    Fractional   4.10
     51 x          0.754350      0.767703     0.013353    Fractional   1.77
     51 y          0.254350      0.269018     0.014668    Fractional   5.77
     51 z          0.754350      0.728664     0.025686    Fractional   3.41
     52 x          0.245650      0.254561     0.008911    Fractional   3.63
     52 y          0.745650      0.732458     0.013192    Fractional   1.77
     52 z          0.245650      0.237720     0.007930    Fractional   3.23
     53 x          0.754350      0.752015     0.002335    Fractional   0.31
     53 y          0.754350      0.779112     0.024762    Fractional   3.28
     53 z          0.254350      0.230280     0.024070    Fractional   9.46
     54 x          0.245650      0.242008     0.003642    Fractional   1.48
     54 y          0.245650      0.255514     0.009864    Fractional   4.02
     54 z          0.745650      0.717894     0.027756    Fractional   3.72
     55 x          0.254350      0.270961     0.016611    Fractional   6.53
     55 y          0.254350      0.288744     0.034394    Fractional  13.52
     55 z          0.254350      0.240679     0.013671    Fractional   5.37
     56 x          0.745650      0.750734     0.005084    Fractional   0.68
     56 y          0.504350      0.508473     0.004123    Fractional   0.82
     56 z          0.504350      0.502311     0.002039    Fractional   0.40
     57 x          0.495650      0.507557     0.011907    Fractional   2.40
     57 y          0.995650      0.006038     0.010388    Fractional   1.04
     57 z          0.754350      0.747928     0.006422    Fractional   0.85
     58 x          0.004350      0.999604     0.004746    Fractional   0.47
     58 y          0.745650      0.734861     0.010789    Fractional   1.45
     58 z          0.004350      0.001201     0.003149    Fractional   0.31
     59 x          0.254350      0.287548     0.033198    Fractional  13.05
     59 y          0.995650      0.992629     0.003021    Fractional   0.30
     59 z          0.995650      0.954902     0.040748    Fractional   4.09
     60 x          0.745650      0.741325     0.004325    Fractional   0.58
     60 y          0.745650      0.720108     0.025542    Fractional   3.43
     60 z          0.745650      0.722614     0.023036    Fractional   3.09
     61 x          0.495650      0.499303     0.003653    Fractional   0.74
     61 y          0.254350      0.265153     0.010803    Fractional   4.25
     61 z          0.495650      0.470667     0.024983    Fractional   5.04
     62 x          0.004350      0.027690     0.023340    Fractional 536.55
     62 y          0.504350      0.506512     0.002162    Fractional   0.43
     62 z          0.245650      0.227525     0.018125    Fractional   7.38
     63 x          0.504350      0.509086     0.004736    Fractional   0.94
     63 y          0.745650      0.728210     0.017440    Fractional   2.34
     63 z          0.504350      0.477491     0.026859    Fractional   5.33
     64 x          0.754350      0.766884     0.012534    Fractional   1.66
     64 y          0.495650      0.502357     0.006707    Fractional   1.35
     64 z          0.995650      0.940883     0.054767    Fractional   5.50
     65 x          0.004350      0.997821     0.006529    Fractional   0.65
     65 y          0.004350      0.039268     0.034918    Fractional 802.72
     65 z          0.745650      0.707975     0.037675    Fractional   5.05
     66 x          0.995650      0.992000     0.003650    Fractional   0.37
     66 y          0.254350      0.276071     0.021721    Fractional   8.54
     66 z          0.995650      0.945990     0.049660    Fractional   4.99
     67 x          0.495650      0.477351     0.018299    Fractional   3.69
     67 y          0.495650      0.510313     0.014663    Fractional   2.96
     67 z          0.254350      0.232141     0.022209    Fractional   8.73
     68 x          0.245650      0.218999     0.026651    Fractional  10.85
     68 y          0.004350      0.010459     0.006109    Fractional 140.44
     68 z          0.504350      0.499608     0.004742    Fractional   0.94
     69 x          0.254350      0.279118     0.024768    Fractional   9.74
     69 y          0.754350      0.770302     0.015952    Fractional   2.11
     69 z          0.754350      0.723523     0.030827    Fractional   4.09
     70 x          0.504350      0.511034     0.006684    Fractional   1.33
     70 y          0.004350      0.007235     0.002885    Fractional  66.32
     70 z          0.245650      0.196661     0.048989    Fractional  19.94
     71 x          0.745650      0.743165     0.002485    Fractional   0.33
     71 y          0.245650      0.247097     0.001447    Fractional   0.59
     71 z          0.245650      0.224551     0.021099    Fractional   8.59
     72 x          0.995650      0.980768     0.014882    Fractional   1.49
     72 y          0.495650      0.476459     0.019191    Fractional   3.87
     72 z          0.754350      0.716304     0.038046    Fractional   5.04
     73 x          0.254350      0.259312     0.004962    Fractional   1.95
     73 y          0.495650      0.500329     0.004679    Fractional   0.94
     73 z          0.495650      0.453130     0.042520    Fractional   8.58
     74 x          0.745650      0.728927     0.016723    Fractional   2.24
     74 y          0.004350      0.015966     0.011616    Fractional 267.03
     74 z          0.004350      0.981459     0.022891    Fractional   2.28
     75 x          0.245650      0.245566     0.000084    Fractional   0.03
     75 y          0.504350      0.514675     0.010325    Fractional   2.05
     75 z          0.004350      0.004699     0.000349    Fractional   8.03
     76 x          0.995650      0.991336     0.004314    Fractional   0.43
     76 y          0.995650      0.006553     0.010903    Fractional   1.10
     76 z          0.254350      0.265415     0.011065    Fractional   4.35
     77 x          0.504350      0.530377     0.026027    Fractional   5.16
     77 y          0.504350      0.494795     0.009555    Fractional   1.89
     77 z          0.745650      0.723462     0.022188    Fractional   2.98
     78 x          0.754350      0.776558     0.022208    Fractional   2.94
     78 y          0.995650      0.997762     0.002112    Fractional   0.21
     78 z          0.495650      0.483337     0.012313    Fractional   2.48
     79 x          0.004350      0.007111     0.002761    Fractional  63.46
     79 y          0.245650      0.232150     0.013500    Fractional   5.50
     79 z          0.504350      0.504007     0.000343    Fractional   0.07
     80 x          0.495650      0.519711     0.024061    Fractional   4.85
     80 y          0.754350      0.792088     0.037738    Fractional   5.00
     80 z          0.995650      0.976363     0.019287    Fractional   1.94
     81 x          0.504350      0.516508     0.012158    Fractional   2.41
     81 y          0.245650      0.230559     0.015091    Fractional   6.14
     81 z          0.004350      0.981031     0.023319    Fractional   2.32
     82 x          0.995650      0.001741     0.006091    Fractional   0.61
     82 y          0.754350      0.787571     0.033221    Fractional   4.40
     82 z          0.495650      0.472732     0.022918    Fractional   4.62
     83 x          0.754350      0.777613     0.023263    Fractional   3.08
     83 y          0.254350      0.278818     0.024468    Fractional   9.62
     83 z          0.754350      0.727984     0.026366    Fractional   3.50
     84 x          0.245650      0.254477     0.008827    Fractional   3.59
     84 y          0.745650      0.718855     0.026795    Fractional   3.59
     84 z          0.245650      0.238123     0.007527    Fractional   3.06
     85 x          0.754350      0.751556     0.002794    Fractional   0.37
     85 y          0.754350      0.781950     0.027600    Fractional   3.66
     85 z          0.254350      0.231722     0.022628    Fractional   8.90
     86 x          0.245650      0.228455     0.017195    Fractional   7.00
     86 y          0.245650      0.255824     0.010174    Fractional   4.14
     86 z          0.745650      0.719236     0.026414    Fractional   3.54

  Time to end of optimisation =       1.8491 seconds

  Timing analysis for GULP :

  Task / Subroutine                                          Time (Seconds)
  Calculation of reciprocal space energy and derivatives          0.1178
  Calculation of real space energy and derivatives                1.6938
  Calculation and manipulation of Hessian matrix                  0.0011
  Calculation of matrix inversion                                 0.0164
  Symmetry generation of equivalent positions                     0.0001

  Dump file written as halospinel.grs

  Job Finished at 13:01.51 28th July       2022