  Job Started  at 12:40.09 28th July       2022

  Number of CPUs =     1

  Total number of configurations input =      1

*  Input for Configuration =   1                                               *

  Formula = Li6Sc2Cl12

  Number of irreducible atoms/shells =      32

  Total number atoms/shells =      32

  Dimensionality = 3               :  Bulk

  Cartesian lattice vectors (Angstroms) :

        6.398000    0.000000    0.000000
        0.000000   11.040000    0.000000
       -2.174317    0.000000    6.009761

  Cell parameters (Angstroms/Degrees):

  a =       6.3980    alpha =  90.0000
  b =      11.0400    beta  = 109.8900
  c =       6.3910    gamma =  90.0000

  Initial cell volume =         424.492978 Angs**3

  Temperature of configuration =   0.00     K

  Pressure of configuration =         0.000 GPa

  Fractional coordinates of asymmetric unit :

   No.  Atomic       x           y          z         Charge      Occupancy
        Label      (Frac)      (Frac)     (Frac)        (e)         (Frac)
      1 Li    c    0.500000    0.834700    0.000000     1.00000    1.000000
      2 Li    c    0.500000 *  0.165300 *  0.000000 *   1.00000    1.000000
      3 Li    c    0.000000 *  0.334700 *  0.000000 *   1.00000    1.000000
      4 Li    c    0.000000 *  0.665300 *  0.000000 *   1.00000    1.000000
      5 Li    c    0.500000 *  0.331000 *  0.500000 *   1.00000    1.000000
      6 Li    c    0.000000 *  0.500000 *  0.500000 *   1.00000    1.000000
      7 Sc    c    0.000000 *  0.000000 *  0.000000 *   3.00000    1.000000
      8 Sc    c    0.500000 *  0.500000 *  0.000000 *   3.00000    1.000000
      9 Cl    c    0.757900 *  0.000000 *  0.231300 *   1.48500    1.000000
     10 Cl    c    0.242100 *  0.000000 *  0.768700 *   1.48500    1.000000
     11 Cl    c    0.257900 *  0.500000 *  0.231300 *   1.48500    1.000000
     12 Cl    c    0.742100 *  0.500000 *  0.768700 *   1.48500    1.000000
     13 Cl    c    0.238700 *  0.839100 *  0.237100 *   1.48500    1.000000
     14 Cl    c    0.761300 *  0.839100 *  0.762900 *   1.48500    1.000000
     15 Cl    c    0.761300 *  0.160900 *  0.762900 *   1.48500    1.000000
     16 Cl    c    0.238700 *  0.160900 *  0.237100 *   1.48500    1.000000
     17 Cl    c    0.738700 *  0.339100 *  0.237100 *   1.48500    1.000000
     18 Cl    c    0.261300 *  0.339100 *  0.762900 *   1.48500    1.000000
     19 Cl    c    0.261300 *  0.660900 *  0.762900 *   1.48500    1.000000
     20 Cl    c    0.738700 *  0.660900 *  0.237100 *   1.48500    1.000000
     21 Cl    s    0.757900 *  0.000000 *  0.231300 *  -2.48500    1.000000
     22 Cl    s    0.242100 *  0.000000 *  0.768700 *  -2.48500    1.000000
     23 Cl    s    0.257900 *  0.500000 *  0.231300 *  -2.48500    1.000000
     24 Cl    s    0.742100 *  0.500000 *  0.768700 *  -2.48500    1.000000
     25 Cl    s    0.238700 *  0.839100 *  0.237100 *  -2.48500    1.000000
     26 Cl    s    0.761300 *  0.839100 *  0.762900 *  -2.48500    1.000000
     27 Cl    s    0.761300 *  0.160900 *  0.762900 *  -2.48500    1.000000
     28 Cl    s    0.238700 *  0.160900 *  0.237100 *  -2.48500    1.000000
     29 Cl    s    0.738700 *  0.339100 *  0.237100 *  -2.48500    1.000000
     30 Cl    s    0.261300 *  0.339100 *  0.762900 *  -2.48500    1.000000
     31 Cl    s    0.261300 *  0.660900 *  0.762900 *  -2.48500    1.000000
     32 Cl    s    0.738700 *  0.660900 *  0.237100 *  -2.48500    1.000000

*  General input information                                                   *

  Species output for all configurations :

  Species    Type    Atomic    Atomic    Charge       Radii (Angs)     Library
                     Number     Mass       (e)     Cova   Ionic  VDW   Symbol
    Li       Core        3       6.94   1.000000   0.680  0.000  1.800
    Sc       Core       21      44.96   3.000000   1.440  0.000  2.150
    Cl       Core       17      35.45   1.485000   0.990  0.000  1.650
    Cl       Shell      17       0.00  -2.485000   0.990  0.000  1.650

  Lattice summation method               =    Ewald          (3-D)
                                         =    Parry          (2-D)
                                         =    Saunders et al (1-D)
  Accuracy factor for lattice sums       =   12.000

  Analytic derivatives to be used

  Time limit = Infinity

  Maximum range for interatomic potentials =    100000.000000 Angstroms

  General interatomic potentials :

Atom  Types   Potential      Parameter       Value         Units   Cutoffs(Ang)
  1     2                                                            Min /  Max
Cl   c Cl   s Spring (c-s)  Spring k 2       29.380000    eV*Ang^-2 0.000  0.800
                            Spring k 4       0.0000000    eV*Ang^-4
Li   c Li   c Buckingham    Buckingham A     360.53000    eV        0.000 12.000
                            Buckingham rho  0.16100000    Ang
                            Buckingham C     0.0000000    eV*Ang^6
Li   c Cl   s Buckingham    Buckingham A     421.04000    eV        0.000 12.000
                            Buckingham rho  0.33400000    Ang
                            Buckingham C     0.0000000    eV*Ang^6
Sc   c Cl   s Buckingham    Buckingham A     12131.350    eV        0.000 12.000
                            Buckingham rho  0.25070000    Ang
                            Buckingham C     0.0000000    eV*Ang^6
Cl   s Cl   s Buckingham    Buckingham A     1227.2000    eV        0.000 12.000
                            Buckingham rho  0.32100000    Ang
                            Buckingham C     14.530000    eV*Ang^6

*  Output for configuration   1                                                *

  Components of energy :

  Interatomic potentials     =          13.77795061 eV
  Monopole - monopole (real) =         -64.17772209 eV
  Monopole - monopole (recip)=         -88.62392090 eV
  Monopole - monopole (total)=        -152.80164299 eV
  Total lattice energy       =        -139.02369237 eV
  Total lattice energy       =          -13413.6611 kJ/(mole unit cells)

  Number of variables =       99

  Maximum number of calculations  =          1000
  Maximum Hessian update interval =            10
  Maximum step size               =   1.000000000
  Maximum parameter tolerance     =   0.000010000
  Maximum function  tolerance     =   0.000010000
  Maximum gradient  tolerance     =   0.001000000
  Maximum gradient  component     =   0.010000000

  Symmetry not applied to optimisation

  Cell parameters to be optimised using strains

  Newton-Raphson optimiser to be used

  BFGS hessian update to be used

  Lower half triangular hessian to be used

  Start of bulk optimisation :

  ** Hessian calculated **
  ** Hessian calculated **
  ** Hessian calculated **
  ** Hessian calculated **

  **** Optimisation achieved ****

  Final energy =    -151.41404185 eV
  Final Gnorm  =       0.00013930

  Components of energy :

  Interatomic potentials     =          27.36101958 eV
  Monopole - monopole (real) =         135.44706951 eV
  Monopole - monopole (recip)=        -314.22213094 eV
  Monopole - monopole (total)=        -178.77506143 eV
  Total lattice energy       =        -151.41404185 eV
  Total lattice energy       =          -14609.1405 kJ/(mole unit cells)

  Final fractional coordinates of atoms :

   No.  Atomic        x           y          z          Radius
        Label       (Frac)      (Frac)     (Frac)       (Angs)
     1  Li    c     0.500000    0.834700    0.000000    0.000000
     2  Li    c     0.500000    0.113525    0.000001    0.000000
     3  Li    c     1.000000    0.289551    1.000000    0.000000
     4  Li    c     0.999999    0.673989    0.999998    0.000000
     5  Li    c     0.500000    0.292832    0.500000    0.000000
     6  Li    c     0.000002    0.491904    0.500000    0.000000
     7  Sc    c     1.000000    0.976641    1.000000    0.000000
     8  Sc    c     0.500000    0.467039    0.999999    0.000000
     9  Cl    c     0.770553    0.981542    0.238615    0.000000
    10  Cl    c     0.229447    0.981544    0.761384    0.000000
    11  Cl    c     0.260552    0.451389    0.228561    0.000000
    12  Cl    c     0.739448    0.451390    0.771437    0.000000
    13  Cl    c     0.252281    0.819651    0.223163    0.000000
    14  Cl    c     0.747717    0.819653    0.776835    0.000000
    15  Cl    c     0.755158    0.137328    0.778359    0.000000
    16  Cl    c     0.244841    0.137328    0.221641    0.000000
    17  Cl    c     0.743441    0.317020    0.255737    0.000000
    18  Cl    c     0.256557    0.317021    0.744261    0.000000
    19  Cl    c     0.248980    0.621844    0.775034    0.000000
    20  Cl    c     0.751020    0.621843    0.224964    0.000000
    21  Cl    s     0.773085    0.982129    0.205687    0.000000
    22  Cl    s     0.226915    0.982131    0.794312    0.000000
    23  Cl    s     0.272768    0.447820    0.214169    0.000000
    24  Cl    s     0.727232    0.447820    0.785830    0.000000
    25  Cl    s     0.231628    0.826313    0.193258    0.000000
    26  Cl    s     0.768371    0.826314    0.806741    0.000000
    27  Cl    s     0.768227    0.133922    0.799625    0.000000
    28  Cl    s     0.231772    0.133921    0.200374    0.000000
    29  Cl    s     0.726122    0.328694    0.240518    0.000000
    30  Cl    s     0.273876    0.328696    0.759480    0.000000
    31  Cl    s     0.257755    0.607577    0.791232    0.000000
    32  Cl    s     0.742246    0.607576    0.208766    0.000000

  Final Cartesian lattice vectors (Angstroms) :

        6.388505   -0.000002   -0.072161
       -0.000003   11.367002    0.000021
       -2.227210    0.000012    6.093249

  Final cell parameters and derivatives :

       a            6.388912 Angstrom     dE/de1(xx)    -0.001208 eV/strain
       b           11.367002 Angstrom     dE/de2(yy)     0.000988 eV/strain
       c            6.487538 Angstrom     dE/de3(zz)    -0.000641 eV/strain
       alpha       89.999785 Degrees      dE/de4(yz)    -0.000002 eV/strain
       beta       110.725571 Degrees      dE/de5(xz)    -0.000808 eV/strain
       gamma       90.000029 Degrees      dE/de6(xy)    -0.000011 eV/strain

  Primitive cell volume =           440.653558 Angs**3

  Density of cell =      2.098856 g/cm**3

  Non-primitive cell volume =           440.653558 Angs**3

  Final internal derivatives :

   No.  Atomic          a             b             c           Radius
        Label          (eV)          (eV)          (eV)        (eV/Angs)
      1 Li    c       0.000000      0.000000      0.000000      0.000000
      2 Li    c      -0.000012     -0.000578      0.000000      0.000000
      3 Li    c       0.000005      0.003749      0.000006      0.000000
      4 Li    c       0.000005      0.000057      0.000003      0.000000
      5 Li    c      -0.000016     -0.003754      0.000006      0.000000
      6 Li    c       0.000045     -0.000940     -0.000001      0.000000
      7 Sc    c      -0.000002      0.000737     -0.000022      0.000000
      8 Sc    c       0.000007      0.001699     -0.000012      0.000000
      9 Cl    c      -0.000963      0.002211     -0.001213      0.000000
     10 Cl    c       0.000944      0.002197      0.001220      0.000000
     11 Cl    c      -0.000243      0.000157     -0.001347      0.000000
     12 Cl    c       0.000209      0.000187      0.001384      0.000000
     13 Cl    c      -0.000020     -0.000113      0.000366      0.000000
     14 Cl    c       0.000042     -0.000047     -0.000378      0.000000
     15 Cl    c      -0.001336      0.001859     -0.002327      0.000000
     16 Cl    c       0.001335      0.001799      0.002294      0.000000
     17 Cl    c      -0.000368      0.002379     -0.000260      0.000000
     18 Cl    c       0.000349      0.002496      0.000199      0.000000
     19 Cl    c       0.001113      0.003076      0.001773      0.000000
     20 Cl    c      -0.001077      0.002925     -0.001779      0.000000
     21 Cl    s       0.000560     -0.003756      0.001482      0.000000
     22 Cl    s      -0.000553     -0.003735     -0.001490      0.000000
     23 Cl    s       0.001168      0.000295      0.001018      0.000000
     24 Cl    s      -0.001108      0.000256     -0.001055      0.000000
     25 Cl    s       0.000261     -0.000075     -0.000956      0.000000
     26 Cl    s      -0.000264     -0.000040      0.000991      0.000000
     27 Cl    s       0.000497     -0.002262      0.001211      0.000000
     28 Cl    s      -0.000505     -0.002237     -0.001197      0.000000
     29 Cl    s      -0.000039     -0.001703      0.000407      0.000000
     30 Cl    s       0.000039     -0.001730     -0.000356      0.000000
     31 Cl    s      -0.001188     -0.002347     -0.001051      0.000000
     32 Cl    s       0.001116     -0.002267      0.001070      0.000000
  Maximum abs         0.001336      0.003756      0.002327      0.000000

  Comparison of initial and final structures :

  Parameter   Initial value   Final value   Difference    Units      Percent
    Volume       424.492978    440.653558    16.160581    Angs**3      3.81
    a              6.398000      6.388912    -0.009088    Angstroms   -0.14
    b             11.040000     11.367002     0.327002    Angstroms    2.96
    c              6.391000      6.487538     0.096538    Angstroms    1.51
    alpha         90.000000     89.999785    -0.000215    Degrees     -0.00
    beta         109.890000    110.725571     0.835571    Degrees      0.76
    gamma         90.000000     90.000029     0.000029    Degrees      0.00
      1 x          0.500000      0.500000     0.000000    Fractional   0.00
      1 y          0.834700      0.834700     0.000000    Fractional   0.00
      1 z          0.000000      0.000000     0.000000    Fractional   0.00
      2 x          0.500000      0.500000     0.000000    Fractional   0.00
      2 y          0.165300      0.113525     0.051775    Fractional  31.32
      2 z          0.000000      0.000001     0.000001    Fractional   0.00
      3 x          0.000000      1.000000     1.000000    Fractional   0.00
      3 y          0.334700      0.289551     0.045149    Fractional  13.49
      3 z          0.000000      1.000000     1.000000    Fractional   0.00
      4 x          0.000000      0.999999     0.999999    Fractional   0.00
      4 y          0.665300      0.673989     0.008689    Fractional   1.31
      4 z          0.000000      0.999998     0.999998    Fractional   0.00
      5 x          0.500000      0.500000     0.000000    Fractional   0.00
      5 y          0.331000      0.292832     0.038168    Fractional  11.53
      5 z          0.500000      0.500000     0.000000    Fractional   0.00
      6 x          0.000000      0.000002     0.000002    Fractional   0.00
      6 y          0.500000      0.491904     0.008096    Fractional   1.62
      6 z          0.500000      0.500000     0.000000    Fractional   0.00
      7 x          0.000000      1.000000     1.000000    Fractional   0.00
      7 y          0.000000      0.976641     0.976641    Fractional   0.00
      7 z          0.000000      1.000000     1.000000    Fractional   0.00
      8 x          0.500000      0.500000     0.000000    Fractional   0.00
      8 y          0.500000      0.467039     0.032961    Fractional   6.59
      8 z          0.000000      0.999999     0.999999    Fractional   0.00
      9 x          0.757900      0.770553     0.012653    Fractional   1.67
      9 y          0.000000      0.981542     0.981542    Fractional   0.00
      9 z          0.231300      0.238615     0.007315    Fractional   3.16
     10 x          0.242100      0.229447     0.012653    Fractional   5.23
     10 y          0.000000      0.981544     0.981544    Fractional   0.00
     10 z          0.768700      0.761384     0.007316    Fractional   0.95
     11 x          0.257900      0.260552     0.002652    Fractional   1.03
     11 y          0.500000      0.451389     0.048611    Fractional   9.72
     11 z          0.231300      0.228561     0.002739    Fractional   1.18
     12 x          0.742100      0.739448     0.002652    Fractional   0.36
     12 y          0.500000      0.451390     0.048610    Fractional   9.72
     12 z          0.768700      0.771437     0.002737    Fractional   0.36
     13 x          0.238700      0.252281     0.013581    Fractional   5.69
     13 y          0.839100      0.819651     0.019449    Fractional   2.32
     13 z          0.237100      0.223163     0.013937    Fractional   5.88
     14 x          0.761300      0.747717     0.013583    Fractional   1.78
     14 y          0.839100      0.819653     0.019447    Fractional   2.32
     14 z          0.762900      0.776835     0.013935    Fractional   1.83
     15 x          0.761300      0.755158     0.006142    Fractional   0.81
     15 y          0.160900      0.137328     0.023572    Fractional  14.65
     15 z          0.762900      0.778359     0.015459    Fractional   2.03
     16 x          0.238700      0.244841     0.006141    Fractional   2.57
     16 y          0.160900      0.137328     0.023572    Fractional  14.65
     16 z          0.237100      0.221641     0.015459    Fractional   6.52
     17 x          0.738700      0.743441     0.004741    Fractional   0.64
     17 y          0.339100      0.317020     0.022080    Fractional   6.51
     17 z          0.237100      0.255737     0.018637    Fractional   7.86
     18 x          0.261300      0.256557     0.004743    Fractional   1.82
     18 y          0.339100      0.317021     0.022079    Fractional   6.51
     18 z          0.762900      0.744261     0.018639    Fractional   2.44
     19 x          0.261300      0.248980     0.012320    Fractional   4.71
     19 y          0.660900      0.621844     0.039056    Fractional   5.91
     19 z          0.762900      0.775034     0.012134    Fractional   1.59
     20 x          0.738700      0.751020     0.012320    Fractional   1.67
     20 y          0.660900      0.621843     0.039057    Fractional   5.91
     20 z          0.237100      0.224964     0.012136    Fractional   5.12
     21 x          0.757900      0.773085     0.015185    Fractional   2.00
     21 y          0.000000      0.982129     0.982129    Fractional   0.00
     21 z          0.231300      0.205687     0.025613    Fractional  11.07
     22 x          0.242100      0.226915     0.015185    Fractional   6.27
     22 y          0.000000      0.982131     0.982131    Fractional   0.00
     22 z          0.768700      0.794312     0.025612    Fractional   3.33
     23 x          0.257900      0.272768     0.014868    Fractional   5.76
     23 y          0.500000      0.447820     0.052180    Fractional  10.44
     23 z          0.231300      0.214169     0.017131    Fractional   7.41
     24 x          0.742100      0.727232     0.014868    Fractional   2.00
     24 y          0.500000      0.447820     0.052180    Fractional  10.44
     24 z          0.768700      0.785830     0.017130    Fractional   2.23
     25 x          0.238700      0.231628     0.007072    Fractional   2.96
     25 y          0.839100      0.826313     0.012787    Fractional   1.52
     25 z          0.237100      0.193258     0.043842    Fractional  18.49
     26 x          0.761300      0.768371     0.007071    Fractional   0.93
     26 y          0.839100      0.826314     0.012786    Fractional   1.52
     26 z          0.762900      0.806741     0.043841    Fractional   5.75
     27 x          0.761300      0.768227     0.006927    Fractional   0.91
     27 y          0.160900      0.133922     0.026978    Fractional  16.77
     27 z          0.762900      0.799625     0.036725    Fractional   4.81
     28 x          0.238700      0.231772     0.006928    Fractional   2.90
     28 y          0.160900      0.133921     0.026979    Fractional  16.77
     28 z          0.237100      0.200374     0.036726    Fractional  15.49
     29 x          0.738700      0.726122     0.012578    Fractional   1.70
     29 y          0.339100      0.328694     0.010406    Fractional   3.07
     29 z          0.237100      0.240518     0.003418    Fractional   1.44
     30 x          0.261300      0.273876     0.012576    Fractional   4.81
     30 y          0.339100      0.328696     0.010404    Fractional   3.07
     30 z          0.762900      0.759480     0.003420    Fractional   0.45
     31 x          0.261300      0.257755     0.003545    Fractional   1.36
     31 y          0.660900      0.607577     0.053323    Fractional   8.07
     31 z          0.762900      0.791232     0.028332    Fractional   3.71
     32 x          0.738700      0.742246     0.003546    Fractional   0.48
     32 y          0.660900      0.607576     0.053324    Fractional   8.07
     32 z          0.237100      0.208766     0.028334    Fractional  11.95

  Time to end of optimisation =       0.4887 seconds

  Timing analysis for GULP :

  Task / Subroutine                                          Time (Seconds)
  Calculation of reciprocal space energy and derivatives          0.0289
  Calculation of real space energy and derivatives                0.4476
  Calculation and manipulation of Hessian matrix                  0.0001
  Calculation of matrix inversion                                 0.0010
  Symmetry generation of equivalent positions                     0.0001

  Dump file written as halospinel.grs

  Job Finished at 12:40.09 28th July       2022