  Job Started  at 12:09.36 28th July       2022

  Number of CPUs =     1

  Total number of configurations input =      1

*  Input for Configuration =   1                                               *

  Formula = Li6Sc2Cl12

  Number of irreducible atoms/shells =      32

  Total number atoms/shells =      32

  Dimensionality = 3               :  Bulk

  Cartesian lattice vectors (Angstroms) :

        8.497129    0.000000    0.000000
        0.367922   10.427922    0.000000
       -1.754821    0.926113    4.406017

  Cell parameters (Angstroms/Degrees):

  a =       8.4971    alpha =  79.7042
  b =      10.4344    beta  = 111.2939
  c =       4.8322    gamma =  87.9793

  Initial cell volume =         390.405765 Angs**3

  Temperature of configuration =   0.00     K

  Pressure of configuration =         0.000 GPa

  Fractional coordinates of asymmetric unit :

   No.  Atomic       x           y          z         Charge      Occupancy
        Label      (Frac)      (Frac)     (Frac)        (e)         (Frac)
      1 Li    c    0.597441    0.774779    0.108058     1.00000    1.000000
      2 Li    c    0.469720 *  0.097690 *  0.883115 *   1.00000    1.000000
      3 Li    c    0.042156 *  0.410868 *  0.047856 *   1.00000    1.000000
      4 Li    c    0.873256 *  0.734164 *  0.801655 *   1.00000    1.000000
      5 Li    c    0.426113 *  0.304841 *  0.310859 *   1.00000    1.000000
      6 Li    c    0.866914 *  0.535415 *  0.393741 *   1.00000    1.000000
      7 Sc    c    0.968823 *  0.022543 *  0.782615 *   3.00000    1.000000
      8 Sc    c    0.527945 *  0.531588 *  0.150518 *   3.00000    1.000000
      9 Cl    c    0.878371 *  0.967330 *  0.218495 *   1.48500    1.000000
     10 Cl    c    0.209672 *  0.895119 *  0.841871 *   1.48500    1.000000
     11 Cl    c    0.263433 *  0.620391 *  0.086675 *   1.48500    1.000000
     12 Cl    c    0.703271 *  0.313239 *  0.065934 *   1.48500    1.000000
     13 Cl    c    0.416548 *  0.856983 *  0.463281 *   1.48500    1.000000
     14 Cl    c    0.662704 *  0.014297 *  0.528411 *   1.48500    1.000000
     15 Cl    c    0.801974 *  0.223777 *  0.689188 *   1.48500    1.000000
     16 Cl    c    0.198828 *  0.083002 *  0.217751 *   1.48500    1.000000
     17 Cl    c    0.094270 *  0.224543 *  0.605160 *   1.48500    1.000000
     18 Cl    c    0.269036 *  0.445428 *  0.672259 *   1.48500    1.000000
     19 Cl    c    0.134544 *  0.716526 *  0.456373 *   1.48500    1.000000
     20 Cl    c    0.594981 *  0.558476 *  0.676187 *   1.48500    1.000000
     21 Cl    s    0.878371 *  0.967330 *  0.218495 *  -2.48500    1.000000
     22 Cl    s    0.209672 *  0.895119 *  0.841871 *  -2.48500    1.000000
     23 Cl    s    0.263433 *  0.620391 *  0.086675 *  -2.48500    1.000000
     24 Cl    s    0.703271 *  0.313239 *  0.065934 *  -2.48500    1.000000
     25 Cl    s    0.416548 *  0.856983 *  0.463281 *  -2.48500    1.000000
     26 Cl    s    0.662704 *  0.014297 *  0.528411 *  -2.48500    1.000000
     27 Cl    s    0.801974 *  0.223777 *  0.689188 *  -2.48500    1.000000
     28 Cl    s    0.198828 *  0.083002 *  0.217751 *  -2.48500    1.000000
     29 Cl    s    0.094270 *  0.224543 *  0.605160 *  -2.48500    1.000000
     30 Cl    s    0.269036 *  0.445428 *  0.672259 *  -2.48500    1.000000
     31 Cl    s    0.134544 *  0.716526 *  0.456373 *  -2.48500    1.000000
     32 Cl    s    0.594981 *  0.558476 *  0.676187 *  -2.48500    1.000000

*  General input information                                                   *

  Species output for all configurations :

  Species    Type    Atomic    Atomic    Charge       Radii (Angs)     Library
                     Number     Mass       (e)     Cova   Ionic  VDW   Symbol
    Li       Core        3       6.94   1.000000   0.680  0.000  1.800
    Sc       Core       21      44.96   3.000000   1.440  0.000  2.150
    Cl       Core       17      35.45   1.485000   0.990  0.000  1.650
    Cl       Shell      17       0.00  -2.485000   0.990  0.000  1.650

  Lattice summation method               =    Ewald          (3-D)
                                         =    Parry          (2-D)
                                         =    Saunders et al (1-D)
  Accuracy factor for lattice sums       =   12.000

  Analytic derivatives to be used

  Time limit = Infinity

  Maximum range for interatomic potentials =    100000.000000 Angstroms

  General interatomic potentials :

Atom  Types   Potential      Parameter       Value         Units   Cutoffs(Ang)
  1     2                                                            Min /  Max
Cl   c Cl   s Spring (c-s)  Spring k 2       36.070000    eV*Ang^-2 0.000  0.800
                            Spring k 4       0.0000000    eV*Ang^-4
Li   c Li   c Buckingham    Buckingham A     360.53000    eV        0.000 12.000
                            Buckingham rho  0.16100000    Ang
                            Buckingham C     0.0000000    eV*Ang^6
Li   c Cl   s Buckingham    Buckingham A     421.04000    eV        0.000 12.000
                            Buckingham rho  0.33400000    Ang
                            Buckingham C     0.0000000    eV*Ang^6
Sc   c Cl   s Buckingham    Buckingham A     2456.2200    eV        0.000 12.000
                            Buckingham rho  0.31470000    Ang
                            Buckingham C     0.0000000    eV*Ang^6
Cl   s Cl   s Buckingham    Buckingham A     1227.2000    eV        0.000 12.000
                            Buckingham rho  0.32100000    Ang
                            Buckingham C     14.530000    eV*Ang^6

*  Output for configuration   1                                                *

  Components of energy :

  Interatomic potentials     =          17.29064620 eV
  Monopole - monopole (real) =         -34.32535544 eV
  Monopole - monopole (recip)=         -85.87562546 eV
  Monopole - monopole (total)=        -120.20098090 eV
  Total lattice energy       =        -102.91033470 eV
  Total lattice energy       =           -9929.2742 kJ/(mole unit cells)

  Number of variables =       99

  Maximum number of calculations  =          1000
  Maximum Hessian update interval =            10
  Maximum step size               =   1.000000000
  Maximum parameter tolerance     =   0.000010000
  Maximum function  tolerance     =   0.000010000
  Maximum gradient  tolerance     =   0.001000000
  Maximum gradient  component     =   0.010000000

  Symmetry not applied to optimisation

  Cell parameters to be optimised using strains

  Newton-Raphson optimiser to be used

  BFGS hessian update to be used

  Lower half triangular hessian to be used

  Start of bulk optimisation :

  ** Hessian calculated **
  ** Hessian calculated **
  ** Hessian calculated **
  ** Hessian calculated **
  ** Hessian calculated **
  ** Hessian calculated **
  ** Hessian calculated **
  ** Hessian calculated **
  ** Hessian calculated **
  ** Hessian calculated **
  ** Hessian calculated **
  ** Hessian calculated **
  ** Hessian calculated **
  ** Hessian calculated **
  ** Hessian calculated **
  ** Hessian calculated **
  ** Hessian calculated **
  ** Hessian calculated **
  ** Hessian calculated **
  ** Hessian calculated **
  ** Hessian calculated **
  ** Hessian calculated **
  ** Hessian calculated **
  ** Hessian calculated **
  ** Hessian calculated **
  ** Hessian calculated **
  ** Hessian calculated **
  ** Hessian calculated **
  ** Hessian calculated **
  ** Hessian calculated **
  ** Hessian calculated **
  ** Hessian calculated **
  ** Hessian calculated **
  ** Hessian calculated **
  ** Hessian calculated **
  ** Hessian calculated **
  ** Hessian calculated **
  ** Hessian calculated **
  ** Hessian calculated **
  ** Hessian calculated **
  ** Hessian calculated **
  ** Hessian calculated **
  ** Hessian calculated **
  ** Hessian calculated **
  ** Hessian calculated **
  ** Hessian calculated **
  ** Hessian calculated **
  ** Hessian calculated **
  ** Hessian calculated **
  ** Hessian calculated **
  ** Hessian calculated **
  ** Hessian calculated **
  ** Hessian calculated **
  ** Hessian calculated **
  ** Hessian calculated **
  ** Hessian calculated **
  ** Hessian calculated **
  ** Hessian calculated **
  ** Hessian calculated **
  ** Hessian calculated **
[...]
  ** Hessian calculated **
  ** Hessian calculated **
  ** Hessian calculated **
  ** Hessian calculated **
  ** Hessian calculated **
  ** Hessian calculated **
  ** Hessian calculated **
  ** Hessian calculated **
  ** Hessian calculated **
  ** Hessian calculated **
  ** Hessian calculated **
  ** Hessian calculated **
  ** Hessian calculated **
  ** Hessian calculated **
  ** Hessian calculated **

  **** Optimisation achieved ****

  Final energy =    -145.13402159 eV
  Final Gnorm  =       0.00024596

  Components of energy :

  Interatomic potentials     =          27.18579317 eV
  Monopole - monopole (real) =         135.84270800 eV
  Monopole - monopole (recip)=        -308.16252276 eV
  Monopole - monopole (total)=        -172.31981476 eV
  Total lattice energy       =        -145.13402159 eV
  Total lattice energy       =          -14003.2145 kJ/(mole unit cells)

  Final fractional coordinates of atoms :

   No.  Atomic        x           y          z          Radius
        Label       (Frac)      (Frac)     (Frac)       (Angs)
     1  Li    c     0.597441    0.774779    0.108058    0.000000
     2  Li    c     0.599336    0.089023    0.828727    0.000000
     3  Li    c     0.956143    0.506458    0.017179    0.000000
     4  Li    c     0.105596    0.863848    0.006598    0.000000
     5  Li    c     0.452584    0.312180    0.442784    0.000000
     6  Li    c     0.765840    0.638052    0.531570    0.000000
     7  Sc    c     0.972037    0.108486    0.696635    0.000000
     8  Sc    c     0.321231    0.456731    0.955534    0.000000
     9  Cl    c     0.843893    0.931152    0.067497    0.000000
    10  Cl    c     0.303451    0.077291    0.903561    0.000000
    11  Cl    c     0.082950    0.630064    0.040990    0.000000
    12  Cl    c     0.543368    0.274111    0.833910    0.000000
    13  Cl    c     0.393861    0.911161    0.249881    0.000000
    14  Cl    c     0.862723    0.000811    0.700447    0.000000
    15  Cl    c     0.747544    0.255870    0.503367    0.000000
    16  Cl    c     0.051323    0.336047    0.279193    0.000000
    17  Cl    c     0.215517    0.346248    0.968187    0.000000
    18  Cl    c     0.424688    0.554932    0.908497    0.000000
    19  Cl    c     0.881864    0.677265    0.411422    0.000000
    20  Cl    c     0.606313    0.591283    0.606908    0.000000
    21  Cl    s     0.853974    0.941753    0.103791    0.000000
    22  Cl    s     0.280193    0.084188    0.895976    0.000000
    23  Cl    s     0.090818    0.616572    0.024173    0.000000
    24  Cl    s     0.528829    0.282876    0.836720    0.000000
    25  Cl    s     0.397288    0.910298    0.254924    0.000000
    26  Cl    s     0.869190    0.007254    0.699058    0.000000
    27  Cl    s     0.755221    0.247166    0.509805    0.000000
    28  Cl    s     0.062306    0.328645    0.280133    0.000000
    29  Cl    s     0.221455    0.356036    0.977184    0.000000
    30  Cl    s     0.424110    0.546587    0.913285    0.000000
    31  Cl    s     0.879725    0.677869    0.410766    0.000000
    32  Cl    s     0.594142    0.587224    0.580571    0.000000

  Final Cartesian lattice vectors (Angstroms) :

        9.407751    2.369726   -3.270639
        2.994413   12.482184   -6.963973
       -3.163958   -2.017360    5.955880

  Final cell parameters and derivatives :

       a           10.238089 Angstrom     dE/de1(xx)    -0.000010 eV/strain
       b           14.603710 Angstrom     dE/de2(yy)     0.001435 eV/strain
       c            7.039380 Angstrom     dE/de3(zz)     0.001126 eV/strain
       alpha      137.780368 Degrees      dE/de4(yz)    -0.000163 eV/strain
       beta       138.558538 Degrees      dE/de5(xz)    -0.000534 eV/strain
       gamma       57.412340 Degrees      dE/de6(xy)     0.000269 eV/strain

  Primitive cell volume =           467.767616 Angs**3

  Density of cell =      1.977197 g/cm**3

  Non-primitive cell volume =           467.767616 Angs**3

  Final internal derivatives :

   No.  Atomic          a             b             c           Radius
        Label          (eV)          (eV)          (eV)        (eV/Angs)
      1 Li    c       0.000000      0.000000      0.000000      0.000000
      2 Li    c      -0.000366      0.001366      0.000160      0.000000
      3 Li    c       0.001065      0.000206     -0.000341      0.000000
      4 Li    c      -0.001979     -0.000247      0.000116      0.000000
      5 Li    c       0.000091     -0.001589      0.000673      0.000000
      6 Li    c       0.000879      0.000864      0.000003      0.000000
      7 Sc    c       0.004718      0.003810     -0.001077      0.000000
      8 Sc    c      -0.002005     -0.002908      0.001179      0.000000
      9 Cl    c      -0.000056      0.001499     -0.000117      0.000000
     10 Cl    c      -0.006292     -0.005607      0.003466      0.000000
     11 Cl    c       0.002709     -0.000317     -0.001414      0.000000
     12 Cl    c       0.004075      0.002489     -0.001366      0.000000
     13 Cl    c      -0.001162     -0.003484      0.000443      0.000000
     14 Cl    c      -0.000007     -0.001853      0.000088      0.000000
     15 Cl    c      -0.002033      0.002794     -0.000378      0.000000
     16 Cl    c      -0.000425     -0.004346      0.001731      0.000000
     17 Cl    c      -0.000439      0.004076     -0.000832      0.000000
     18 Cl    c       0.001354      0.005641     -0.000133      0.000000
     19 Cl    c       0.000246      0.001654     -0.001060      0.000000
     20 Cl    c      -0.002361      0.002003     -0.000620      0.000000
     21 Cl    s       0.001237      0.000250     -0.002789      0.000000
     22 Cl    s       0.004333      0.003782     -0.002766      0.000000
     23 Cl    s      -0.001324     -0.000934      0.000878      0.000000
     24 Cl    s      -0.000710     -0.003451      0.002103      0.000000
     25 Cl    s       0.000854     -0.004355      0.001070      0.000000
     26 Cl    s      -0.006060     -0.002123      0.001086      0.000000
     27 Cl    s       0.003086     -0.000699      0.000486      0.000000
     28 Cl    s      -0.000871      0.005739     -0.001911      0.000000
     29 Cl    s      -0.004628     -0.007086      0.002448      0.000000
     30 Cl    s       0.002317      0.002681     -0.002074      0.000000
     31 Cl    s      -0.000456      0.001411      0.001021      0.000000
     32 Cl    s       0.003295      0.000304     -0.000154      0.000000
  Maximum abs         0.006292      0.007086      0.003466      0.000000

  Comparison of initial and final structures :

  Parameter   Initial value   Final value   Difference    Units      Percent
    Volume       390.405765    467.767616    77.361851    Angs**3     19.82
    a              8.497129     10.238089     1.740960    Angstroms   20.49
    b             10.434411     14.603710     4.169299    Angstroms   39.96
    c              4.832191      7.039380     2.207189    Angstroms   45.68
    alpha         79.704163    137.780368    58.076205    Degrees     72.86
    beta         111.293907    138.558538    27.264631    Degrees     24.50
    gamma         87.979309     57.412340   -30.566969    Degrees    -34.74
      1 x          0.597441      0.597441     0.000000    Fractional   0.00
      1 y          0.774779      0.774779     0.000000    Fractional   0.00
      1 z          0.108058      0.108058     0.000000    Fractional   0.00
      2 x          0.469720      0.599336     0.129616    Fractional  27.59
      2 y          0.097690      0.089023     0.008667    Fractional   8.87
      2 z          0.883115      0.828727     0.054388    Fractional   6.16
      3 x          0.042156      0.956143     0.086013    Fractional 204.04
      3 y          0.410868      0.506458     0.095590    Fractional  23.27
      3 z          0.047856      0.017179     0.030677    Fractional  64.10
      4 x          0.873256      0.105596     0.232340    Fractional  26.61
      4 y          0.734164      0.863848     0.129684    Fractional  17.66
      4 z          0.801655      0.006598     0.204943    Fractional  25.57
      5 x          0.426113      0.452584     0.026471    Fractional   6.21
      5 y          0.304841      0.312180     0.007339    Fractional   2.41
      5 z          0.310859      0.442784     0.131925    Fractional  42.44
      6 x          0.866914      0.765840     0.101074    Fractional  11.66
      6 y          0.535415      0.638052     0.102637    Fractional  19.17
      6 z          0.393741      0.531570     0.137829    Fractional  35.00
      7 x          0.968823      0.972037     0.003214    Fractional   0.33
      7 y          0.022543      0.108486     0.085943    Fractional 381.24
      7 z          0.782615      0.696635     0.085980    Fractional  10.99
      8 x          0.527945      0.321231     0.206714    Fractional  39.15
      8 y          0.531588      0.456731     0.074857    Fractional  14.08
      8 z          0.150518      0.955534     0.194984    Fractional 129.54
      9 x          0.878371      0.843893     0.034478    Fractional   3.93
      9 y          0.967330      0.931152     0.036178    Fractional   3.74
      9 z          0.218495      0.067497     0.150998    Fractional  69.11
     10 x          0.209672      0.303451     0.093779    Fractional  44.73
     10 y          0.895119      0.077291     0.182172    Fractional  20.35
     10 z          0.841871      0.903561     0.061690    Fractional   7.33
     11 x          0.263433      0.082950     0.180483    Fractional  68.51
     11 y          0.620391      0.630064     0.009673    Fractional   1.56
     11 z          0.086675      0.040990     0.045685    Fractional  52.71
     12 x          0.703271      0.543368     0.159903    Fractional  22.74
     12 y          0.313239      0.274111     0.039128    Fractional  12.49
     12 z          0.065934      0.833910     0.232024    Fractional 351.90
     13 x          0.416548      0.393861     0.022687    Fractional   5.45
     13 y          0.856983      0.911161     0.054178    Fractional   6.32
     13 z          0.463281      0.249881     0.213400    Fractional  46.06
     14 x          0.662704      0.862723     0.200019    Fractional  30.18
     14 y          0.014297      0.000811     0.013486    Fractional  94.33
     14 z          0.528411      0.700447     0.172036    Fractional  32.56
     15 x          0.801974      0.747544     0.054430    Fractional   6.79
     15 y          0.223777      0.255870     0.032093    Fractional  14.34
     15 z          0.689188      0.503367     0.185821    Fractional  26.96
     16 x          0.198828      0.051323     0.147505    Fractional  74.19
     16 y          0.083002      0.336047     0.253045    Fractional 304.87
     16 z          0.217751      0.279193     0.061442    Fractional  28.22
     17 x          0.094270      0.215517     0.121247    Fractional 128.62
     17 y          0.224543      0.346248     0.121705    Fractional  54.20
     17 z          0.605160      0.968187     0.363027    Fractional  59.99
     18 x          0.269036      0.424688     0.155652    Fractional  57.86
     18 y          0.445428      0.554932     0.109504    Fractional  24.58
     18 z          0.672259      0.908497     0.236238    Fractional  35.14
     19 x          0.134544      0.881864     0.252680    Fractional 187.80
     19 y          0.716526      0.677265     0.039261    Fractional   5.48
     19 z          0.456373      0.411422     0.044951    Fractional   9.85
     20 x          0.594981      0.606313     0.011332    Fractional   1.90
     20 y          0.558476      0.591283     0.032807    Fractional   5.87
     20 z          0.676187      0.606908     0.069279    Fractional  10.25
     21 x          0.878371      0.853974     0.024397    Fractional   2.78
     21 y          0.967330      0.941753     0.025577    Fractional   2.64
     21 z          0.218495      0.103791     0.114704    Fractional  52.50
     22 x          0.209672      0.280193     0.070521    Fractional  33.63
     22 y          0.895119      0.084188     0.189069    Fractional  21.12
     22 z          0.841871      0.895976     0.054105    Fractional   6.43
     23 x          0.263433      0.090818     0.172615    Fractional  65.53
     23 y          0.620391      0.616572     0.003819    Fractional   0.62
     23 z          0.086675      0.024173     0.062502    Fractional  72.11
     24 x          0.703271      0.528829     0.174442    Fractional  24.80
     24 y          0.313239      0.282876     0.030363    Fractional   9.69
     24 z          0.065934      0.836720     0.229214    Fractional 347.64
     25 x          0.416548      0.397288     0.019260    Fractional   4.62
     25 y          0.856983      0.910298     0.053315    Fractional   6.22
     25 z          0.463281      0.254924     0.208357    Fractional  44.97
     26 x          0.662704      0.869190     0.206486    Fractional  31.16
     26 y          0.014297      0.007254     0.007043    Fractional  49.26
     26 z          0.528411      0.699058     0.170647    Fractional  32.29
     27 x          0.801974      0.755221     0.046753    Fractional   5.83
     27 y          0.223777      0.247166     0.023389    Fractional  10.45
     27 z          0.689188      0.509805     0.179383    Fractional  26.03
     28 x          0.198828      0.062306     0.136522    Fractional  68.66
     28 y          0.083002      0.328645     0.245643    Fractional 295.95
     28 z          0.217751      0.280133     0.062382    Fractional  28.65
     29 x          0.094270      0.221455     0.127185    Fractional 134.92
     29 y          0.224543      0.356036     0.131493    Fractional  58.56
     29 z          0.605160      0.977184     0.372024    Fractional  61.48
     30 x          0.269036      0.424110     0.155074    Fractional  57.64
     30 y          0.445428      0.546587     0.101159    Fractional  22.71
     30 z          0.672259      0.913285     0.241026    Fractional  35.85
     31 x          0.134544      0.879725     0.254819    Fractional 189.39
     31 y          0.716526      0.677869     0.038657    Fractional   5.40
     31 z          0.456373      0.410766     0.045607    Fractional   9.99
     32 x          0.594981      0.594142     0.000839    Fractional   0.14
     32 y          0.558476      0.587224     0.028748    Fractional   5.15
     32 z          0.676187      0.580571     0.095616    Fractional  14.14

  Time to end of optimisation =      31.6403 seconds

  Timing analysis for GULP :

  Task / Subroutine                                          Time (Seconds)
  Calculation of reciprocal space energy and derivatives          0.7015
  Calculation of real space energy and derivatives               30.8593
  Calculation and manipulation of Hessian matrix                  0.0018
  Calculation of matrix inversion                                 0.0179
  Global summation overhead                                       0.0011

  Dump file written as halospinel.grs

  Job Finished at 12:10.07 28th July       2022