  Job Started  at 12:06.53 28th July       2022

  Number of CPUs =     1

  Total number of configurations input =      1

*  Input for Configuration =   1                                               *

  Formula = Li6Sc2Cl12

  Number of irreducible atoms/shells =      32

  Total number atoms/shells =      32

  Dimensionality = 3               :  Bulk

  Cartesian lattice vectors (Angstroms) :

        8.497129    0.000000    0.000000
        0.367922   10.427922    0.000000
       -1.754821    0.926113    4.406017

  Cell parameters (Angstroms/Degrees):

  a =       8.4971    alpha =  79.7042
  b =      10.4344    beta  = 111.2939
  c =       4.8322    gamma =  87.9793

  Initial cell volume =         390.405765 Angs**3

  Temperature of configuration =   0.00     K

  Pressure of configuration =         0.000 GPa

  Fractional coordinates of asymmetric unit :

   No.  Atomic       x           y          z         Charge      Occupancy
        Label      (Frac)      (Frac)     (Frac)        (e)         (Frac)
      1 Li    c    0.597441    0.774779    0.108058     1.00000    1.000000
      2 Li    c    0.469720 *  0.097690 *  0.883115 *   1.00000    1.000000
      3 Li    c    0.042156 *  0.410868 *  0.047856 *   1.00000    1.000000
      4 Li    c    0.873256 *  0.734164 *  0.801655 *   1.00000    1.000000
      5 Li    c    0.426113 *  0.304841 *  0.310859 *   1.00000    1.000000
      6 Li    c    0.866914 *  0.535415 *  0.393741 *   1.00000    1.000000
      7 Sc    c    0.968823 *  0.022543 *  0.782615 *   3.00000    1.000000
      8 Sc    c    0.527945 *  0.531588 *  0.150518 *   3.00000    1.000000
      9 Cl    c    0.878371 *  0.967330 *  0.218495 *   1.48500    1.000000
     10 Cl    c    0.209672 *  0.895119 *  0.841871 *   1.48500    1.000000
     11 Cl    c    0.263433 *  0.620391 *  0.086675 *   1.48500    1.000000
     12 Cl    c    0.703271 *  0.313239 *  0.065934 *   1.48500    1.000000
     13 Cl    c    0.416548 *  0.856983 *  0.463281 *   1.48500    1.000000
     14 Cl    c    0.662704 *  0.014297 *  0.528411 *   1.48500    1.000000
     15 Cl    c    0.801974 *  0.223777 *  0.689188 *   1.48500    1.000000
     16 Cl    c    0.198828 *  0.083002 *  0.217751 *   1.48500    1.000000
     17 Cl    c    0.094270 *  0.224543 *  0.605160 *   1.48500    1.000000
     18 Cl    c    0.269036 *  0.445428 *  0.672259 *   1.48500    1.000000
     19 Cl    c    0.134544 *  0.716526 *  0.456373 *   1.48500    1.000000
     20 Cl    c    0.594981 *  0.558476 *  0.676187 *   1.48500    1.000000
     21 Cl    s    0.878371 *  0.967330 *  0.218495 *  -2.48500    1.000000
     22 Cl    s    0.209672 *  0.895119 *  0.841871 *  -2.48500    1.000000
     23 Cl    s    0.263433 *  0.620391 *  0.086675 *  -2.48500    1.000000
     24 Cl    s    0.703271 *  0.313239 *  0.065934 *  -2.48500    1.000000
     25 Cl    s    0.416548 *  0.856983 *  0.463281 *  -2.48500    1.000000
     26 Cl    s    0.662704 *  0.014297 *  0.528411 *  -2.48500    1.000000
     27 Cl    s    0.801974 *  0.223777 *  0.689188 *  -2.48500    1.000000
     28 Cl    s    0.198828 *  0.083002 *  0.217751 *  -2.48500    1.000000
     29 Cl    s    0.094270 *  0.224543 *  0.605160 *  -2.48500    1.000000
     30 Cl    s    0.269036 *  0.445428 *  0.672259 *  -2.48500    1.000000
     31 Cl    s    0.134544 *  0.716526 *  0.456373 *  -2.48500    1.000000
     32 Cl    s    0.594981 *  0.558476 *  0.676187 *  -2.48500    1.000000

*  General input information                                                   *

  Species output for all configurations :

  Species    Type    Atomic    Atomic    Charge       Radii (Angs)     Library
                     Number     Mass       (e)     Cova   Ionic  VDW   Symbol
    Li       Core        3       6.94   1.000000   0.680  0.000  1.800
    Sc       Core       21      44.96   3.000000   1.440  0.000  2.150
    Cl       Core       17      35.45   1.485000   0.990  0.000  1.650
    Cl       Shell      17       0.00  -2.485000   0.990  0.000  1.650

  Lattice summation method               =    Ewald          (3-D)
                                         =    Parry          (2-D)
                                         =    Saunders et al (1-D)
  Accuracy factor for lattice sums       =   12.000

  Analytic derivatives to be used

  Time limit = Infinity

  Maximum range for interatomic potentials =    100000.000000 Angstroms

  General interatomic potentials :

Atom  Types   Potential      Parameter       Value         Units   Cutoffs(Ang)
  1     2                                                            Min /  Max
Cl   c Cl   s Spring (c-s)  Spring k 2       29.380000    eV*Ang^-2 0.000  0.800
                            Spring k 4       0.0000000    eV*Ang^-4
Li   c Li   c Buckingham    Buckingham A     360.53000    eV        0.000 12.000
                            Buckingham rho  0.16100000    Ang
                            Buckingham C     0.0000000    eV*Ang^6
Li   c Cl   s Buckingham    Buckingham A     421.04000    eV        0.000 12.000
                            Buckingham rho  0.33400000    Ang
                            Buckingham C     0.0000000    eV*Ang^6
Sc   c Cl   s Buckingham    Buckingham A     12131.350    eV        0.000 12.000
                            Buckingham rho  0.25070000    Ang
                            Buckingham C     0.0000000    eV*Ang^6
Cl   s Cl   s Buckingham    Buckingham A     1227.2000    eV        0.000 12.000
                            Buckingham rho  0.32100000    Ang
                            Buckingham C     14.530000    eV*Ang^6

*  Output for configuration   1                                                *

  Components of energy :

  Interatomic potentials     =          13.73579326 eV
  Monopole - monopole (real) =         -34.32535544 eV
  Monopole - monopole (recip)=         -85.87562546 eV
  Monopole - monopole (total)=        -120.20098090 eV
  Total lattice energy       =        -106.46518764 eV
  Total lattice energy       =          -10272.2631 kJ/(mole unit cells)

  Number of variables =       99

  Maximum number of calculations  =          1000
  Maximum Hessian update interval =            10
  Maximum step size               =   1.000000000
  Maximum parameter tolerance     =   0.000010000
  Maximum function  tolerance     =   0.000010000
  Maximum gradient  tolerance     =   0.001000000
  Maximum gradient  component     =   0.010000000

  Symmetry not applied to optimisation

  Cell parameters to be optimised using strains

  Newton-Raphson optimiser to be used

  BFGS hessian update to be used

  Lower half triangular hessian to be used

  Start of bulk optimisation :

  ** Hessian calculated **
  ** Hessian calculated **
  ** Hessian calculated **
  ** Hessian calculated **
  ** Hessian calculated **
  ** Hessian calculated **
  ** Hessian calculated **
  ** Hessian calculated **
  ** Hessian calculated **
  ** Hessian calculated **
  ** Hessian calculated **
  ** Hessian calculated **
  ** Hessian calculated **
  ** Hessian calculated **
  ** Hessian calculated **
  ** Hessian calculated **
  ** Hessian calculated **
  ** Hessian calculated **
  ** Hessian calculated **
  ** Hessian calculated **
  ** Hessian calculated **
  ** Hessian calculated **
  ** Hessian calculated **
  ** Hessian calculated **
  ** Hessian calculated **
  ** Hessian calculated **
  ** Hessian calculated **
  ** Hessian calculated **
  ** Hessian calculated **
  ** Hessian calculated **
  ** Hessian calculated **
  ** Hessian calculated **
  ** Hessian calculated **
  ** Hessian calculated **
  ** Hessian calculated **
  ** Hessian calculated **
  ** Hessian calculated **
  ** Hessian calculated **
  ** Hessian calculated **
  ** Hessian calculated **
  ** Hessian calculated **
  ** Hessian calculated **
  ** Hessian calculated **
  ** Hessian calculated **
  ** Hessian calculated **
  ** Hessian calculated **
  ** Hessian calculated **
  ** Hessian calculated **

  **** Optimisation achieved ****

  Final energy =    -150.36955248 eV
  Final Gnorm  =       0.00021457

  Components of energy :

  Interatomic potentials     =          25.36433418 eV
  Monopole - monopole (real) =         147.04727444 eV
  Monopole - monopole (recip)=        -322.78116109 eV
  Monopole - monopole (total)=        -175.73388666 eV
  Total lattice energy       =        -150.36955248 eV
  Total lattice energy       =          -14508.3632 kJ/(mole unit cells)

  Final fractional coordinates of atoms :

   No.  Atomic        x           y          z          Radius
        Label       (Frac)      (Frac)     (Frac)       (Angs)
     1  Li    c     0.597441    0.774779    0.108058    0.000000
     2  Li    c     0.504422    0.959213    0.607041    0.000000
     3  Li    c     0.821549    0.269621    0.079683    0.000000
     4  Li    c     0.068089    0.822428    0.103036    0.000000
     5  Li    c     0.353699    0.254246    0.604098    0.000000
     6  Li    c     0.846771    0.578046    0.259051    0.000000
     7  Sc    c     0.018014    0.076873    0.679546    0.000000
     8  Sc    c     0.309036    0.533462    0.198935    0.000000
     9  Cl    c     0.787733    0.110320    0.965963    0.000000
    10  Cl    c     0.201232    0.952430    0.800526    0.000000
    11  Cl    c     0.230558    0.631098    0.669321    0.000000
    12  Cl    c     0.403020    0.439756    0.746023    0.000000
    13  Cl    c     0.422624    0.810987    0.451293    0.000000
    14  Cl    c     0.750024    0.957070    0.351558    0.000000
    15  Cl    c     0.589959    0.282723    0.354667    0.000000
    16  Cl    c     0.272402    0.101860    0.446493    0.000000
    17  Cl    c     0.079094    0.237642    0.821128    0.000000
    18  Cl    c     0.960293    0.475317    0.821024    0.000000
    19  Cl    c     0.918510    0.746392    0.415290    0.000000
    20  Cl    c     0.636401    0.612678    0.566022    0.000000
    21  Cl    s     0.816987    0.108748    0.994444    0.000000
    22  Cl    s     0.193098    0.959749    0.796027    0.000000
    23  Cl    s     0.236996    0.616245    0.668319    0.000000
    24  Cl    s     0.388526    0.451584    0.737456    0.000000
    25  Cl    s     0.428517    0.812856    0.458127    0.000000
    26  Cl    s     0.756852    0.964907    0.362303    0.000000
    27  Cl    s     0.589617    0.280749    0.353344    0.000000
    28  Cl    s     0.243847    0.102487    0.418242    0.000000
    29  Cl    s     0.076906    0.230931    0.815568    0.000000
    30  Cl    s     0.986597    0.483081    0.851204    0.000000
    31  Cl    s     0.914705    0.749215    0.412871    0.000000
    32  Cl    s     0.617420    0.603923    0.542663    0.000000

  Final Cartesian lattice vectors (Angstroms) :

        7.781942   -0.022593   -0.227359
       -0.893926   15.932718   -3.067543
       -1.667351    0.111781    3.306687

  Final cell parameters and derivatives :

       a            7.785295 Angstrom     dE/de1(xx)     0.000361 eV/strain
       b           16.249936 Angstrom     dE/de2(yy)     0.000747 eV/strain
       c            3.704960 Angstrom     dE/de3(zz)    -0.000588 eV/strain
       alpha       96.554123 Degrees      dE/de4(yz)     0.000265 eV/strain
       beta       118.423826 Degrees      dE/de5(xz)    -0.000695 eV/strain
       gamma       92.999074 Degrees      dE/de6(xy)     0.000685 eV/strain

  Primitive cell volume =           406.456663 Angs**3

  Density of cell =      2.275442 g/cm**3

  Non-primitive cell volume =           406.456663 Angs**3

  Final internal derivatives :

   No.  Atomic          a             b             c           Radius
        Label          (eV)          (eV)          (eV)        (eV/Angs)
      1 Li    c       0.000000      0.000000      0.000000      0.000000
      2 Li    c       0.001018      0.001527     -0.000255      0.000000
      3 Li    c      -0.000134      0.000219      0.000019      0.000000
      4 Li    c      -0.000431      0.003221      0.000644      0.000000
      5 Li    c       0.000064      0.000023      0.000003      0.000000
      6 Li    c      -0.000887      0.000609     -0.000080      0.000000
      7 Sc    c       0.000484     -0.000801     -0.000034      0.000000
      8 Sc    c      -0.001159      0.000383      0.000003      0.000000
      9 Cl    c      -0.000004      0.001263     -0.000196      0.000000
     10 Cl    c      -0.001729     -0.009891      0.000499      0.000000
     11 Cl    c       0.002419     -0.000085      0.001032      0.000000
     12 Cl    c      -0.002810     -0.005212     -0.001073      0.000000
     13 Cl    c       0.000157     -0.001597     -0.000336      0.000000
     14 Cl    c       0.000801     -0.002153     -0.000023      0.000000
     15 Cl    c       0.000125      0.000403      0.000090      0.000000
     16 Cl    c      -0.000119      0.001806      0.000245      0.000000
     17 Cl    c      -0.000063     -0.002411      0.000196      0.000000
     18 Cl    c       0.001370     -0.001050      0.000395      0.000000
     19 Cl    c       0.004737     -0.006479      0.001046      0.000000
     20 Cl    c      -0.001568     -0.000704      0.000730      0.000000
     21 Cl    s      -0.000699     -0.001894      0.000044      0.000000
     22 Cl    s       0.001407      0.006564     -0.000313      0.000000
     23 Cl    s      -0.003645     -0.000332     -0.000856      0.000000
     24 Cl    s       0.001981      0.008742      0.000577      0.000000
     25 Cl    s       0.000212      0.002616     -0.000521      0.000000
     26 Cl    s      -0.001035      0.002437     -0.000192      0.000000
     27 Cl    s      -0.000105     -0.001528      0.000347      0.000000
     28 Cl    s       0.000245     -0.000709     -0.000188      0.000000
     29 Cl    s       0.000144      0.001262     -0.000337      0.000000
     30 Cl    s       0.003235      0.000106     -0.000249      0.000000
     31 Cl    s       0.000846      0.004034     -0.001516      0.000000
     32 Cl    s      -0.001571     -0.000080     -0.000712      0.000000
  Maximum abs         0.004737      0.009891      0.001516      0.000000

  Comparison of initial and final structures :

  Parameter   Initial value   Final value   Difference    Units      Percent
    Volume       390.405765    406.456663    16.050898    Angs**3      4.11
    a              8.497129      7.785295    -0.711834    Angstroms   -8.38
    b             10.434411     16.249936     5.815525    Angstroms   55.73
    c              4.832191      3.704960    -1.127231    Angstroms  -23.33
    alpha         79.704163     96.554123    16.849960    Degrees     21.14
    beta         111.293907    118.423826     7.129919    Degrees      6.41
    gamma         87.979309     92.999074     5.019765    Degrees      5.71
      1 x          0.597441      0.597441     0.000000    Fractional   0.00
      1 y          0.774779      0.774779     0.000000    Fractional   0.00
      1 z          0.108058      0.108058     0.000000    Fractional   0.00
      2 x          0.469720      0.504422     0.034702    Fractional   7.39
      2 y          0.097690      0.959213     0.138477    Fractional 141.75
      2 z          0.883115      0.607041     0.276074    Fractional  31.26
      3 x          0.042156      0.821549     0.220607    Fractional 523.31
      3 y          0.410868      0.269621     0.141247    Fractional  34.38
      3 z          0.047856      0.079683     0.031827    Fractional  66.51
      4 x          0.873256      0.068089     0.194833    Fractional  22.31
      4 y          0.734164      0.822428     0.088264    Fractional  12.02
      4 z          0.801655      0.103036     0.301381    Fractional  37.59
      5 x          0.426113      0.353699     0.072414    Fractional  16.99
      5 y          0.304841      0.254246     0.050595    Fractional  16.60
      5 z          0.310859      0.604098     0.293239    Fractional  94.33
      6 x          0.866914      0.846771     0.020143    Fractional   2.32
      6 y          0.535415      0.578046     0.042631    Fractional   7.96
      6 z          0.393741      0.259051     0.134690    Fractional  34.21
      7 x          0.968823      0.018014     0.049191    Fractional   5.08
      7 y          0.022543      0.076873     0.054330    Fractional 241.01
      7 z          0.782615      0.679546     0.103069    Fractional  13.17
      8 x          0.527945      0.309036     0.218909    Fractional  41.46
      8 y          0.531588      0.533462     0.001874    Fractional   0.35
      8 z          0.150518      0.198935     0.048417    Fractional  32.17
      9 x          0.878371      0.787733     0.090638    Fractional  10.32
      9 y          0.967330      0.110320     0.142990    Fractional  14.78
      9 z          0.218495      0.965963     0.252532    Fractional 115.58
     10 x          0.209672      0.201232     0.008440    Fractional   4.03
     10 y          0.895119      0.952430     0.057311    Fractional   6.40
     10 z          0.841871      0.800526     0.041345    Fractional   4.91
     11 x          0.263433      0.230558     0.032875    Fractional  12.48
     11 y          0.620391      0.631098     0.010707    Fractional   1.73
     11 z          0.086675      0.669321     0.417354    Fractional 481.52
     12 x          0.703271      0.403020     0.300251    Fractional  42.69
     12 y          0.313239      0.439756     0.126517    Fractional  40.39
     12 z          0.065934      0.746023     0.319911    Fractional 485.20
     13 x          0.416548      0.422624     0.006076    Fractional   1.46
     13 y          0.856983      0.810987     0.045996    Fractional   5.37
     13 z          0.463281      0.451293     0.011988    Fractional   2.59
     14 x          0.662704      0.750024     0.087320    Fractional  13.18
     14 y          0.014297      0.957070     0.057227    Fractional 400.28
     14 z          0.528411      0.351558     0.176853    Fractional  33.47
     15 x          0.801974      0.589959     0.212015    Fractional  26.44
     15 y          0.223777      0.282723     0.058946    Fractional  26.34
     15 z          0.689188      0.354667     0.334521    Fractional  48.54
     16 x          0.198828      0.272402     0.073574    Fractional  37.00
     16 y          0.083002      0.101860     0.018858    Fractional  22.72
     16 z          0.217751      0.446493     0.228742    Fractional 105.05
     17 x          0.094270      0.079094     0.015176    Fractional  16.10
     17 y          0.224543      0.237642     0.013099    Fractional   5.83
     17 z          0.605160      0.821128     0.215968    Fractional  35.69
     18 x          0.269036      0.960293     0.308743    Fractional 114.76
     18 y          0.445428      0.475317     0.029889    Fractional   6.71
     18 z          0.672259      0.821024     0.148765    Fractional  22.13
     19 x          0.134544      0.918510     0.216034    Fractional 160.57
     19 y          0.716526      0.746392     0.029866    Fractional   4.17
     19 z          0.456373      0.415290     0.041083    Fractional   9.00
     20 x          0.594981      0.636401     0.041420    Fractional   6.96
     20 y          0.558476      0.612678     0.054202    Fractional   9.71
     20 z          0.676187      0.566022     0.110165    Fractional  16.29
     21 x          0.878371      0.816987     0.061384    Fractional   6.99
     21 y          0.967330      0.108748     0.141418    Fractional  14.62
     21 z          0.218495      0.994444     0.224051    Fractional 102.54
     22 x          0.209672      0.193098     0.016574    Fractional   7.90
     22 y          0.895119      0.959749     0.064630    Fractional   7.22
     22 z          0.841871      0.796027     0.045844    Fractional   5.45
     23 x          0.263433      0.236996     0.026437    Fractional  10.04
     23 y          0.620391      0.616245     0.004146    Fractional   0.67
     23 z          0.086675      0.668319     0.418356    Fractional 482.67
     24 x          0.703271      0.388526     0.314745    Fractional  44.75
     24 y          0.313239      0.451584     0.138345    Fractional  44.17
     24 z          0.065934      0.737456     0.328478    Fractional 498.19
     25 x          0.416548      0.428517     0.011969    Fractional   2.87
     25 y          0.856983      0.812856     0.044127    Fractional   5.15
     25 z          0.463281      0.458127     0.005154    Fractional   1.11
     26 x          0.662704      0.756852     0.094148    Fractional  14.21
     26 y          0.014297      0.964907     0.049390    Fractional 345.46
     26 z          0.528411      0.362303     0.166108    Fractional  31.44
     27 x          0.801974      0.589617     0.212357    Fractional  26.48
     27 y          0.223777      0.280749     0.056972    Fractional  25.46
     27 z          0.689188      0.353344     0.335844    Fractional  48.73
     28 x          0.198828      0.243847     0.045019    Fractional  22.64
     28 y          0.083002      0.102487     0.019485    Fractional  23.48
     28 z          0.217751      0.418242     0.200491    Fractional  92.07
     29 x          0.094270      0.076906     0.017364    Fractional  18.42
     29 y          0.224543      0.230931     0.006388    Fractional   2.84
     29 z          0.605160      0.815568     0.210408    Fractional  34.77
     30 x          0.269036      0.986597     0.282439    Fractional 104.98
     30 y          0.445428      0.483081     0.037653    Fractional   8.45
     30 z          0.672259      0.851204     0.178945    Fractional  26.62
     31 x          0.134544      0.914705     0.219839    Fractional 163.40
     31 y          0.716526      0.749215     0.032689    Fractional   4.56
     31 z          0.456373      0.412871     0.043502    Fractional   9.53
     32 x          0.594981      0.617420     0.022439    Fractional   3.77
     32 y          0.558476      0.603923     0.045447    Fractional   8.14
     32 z          0.676187      0.542663     0.133524    Fractional  19.75

  Time to end of optimisation =       8.6815 seconds

  Timing analysis for GULP :

  Task / Subroutine                                          Time (Seconds)
  Calculation of reciprocal space energy and derivatives          0.3339
  Calculation of real space energy and derivatives                8.3007
  Calculation and manipulation of Hessian matrix                  0.0011
  Calculation of matrix inversion                                 0.0108
  Symmetry generation of equivalent positions                     0.0002
  Global summation overhead                                       0.0005

  Dump file written as halospinel.grs

  Job Finished at 12:07.02 28th July       2022