  Job Started  at 12:42.26 19th April      2022

  Number of CPUs =     1

  Total number of configurations input =      1

*  Input for Configuration =   1                                               *

  Formula = Sc2Cl6

  Number of irreducible atoms/shells =       8

  Total number atoms/shells =       8

  Dimensionality = 3               :  Bulk

  Cartesian lattice vectors (Angstroms) :

        3.246588    1.874418    6.441540
       -3.246588    1.874418    6.441540
        0.000000   -3.748837    6.441540

  Cell parameters (Angstroms/Degrees):

  a =       7.4530    alpha =  51.6480
  b =       7.4530    beta  =  51.6480
  c =       7.4530    gamma =  51.6480

  Initial cell volume =         235.198534 Angs**3

  Temperature of configuration =   0.00     K

  Pressure of configuration =         0.000 GPa

  Fractional coordinates of asymmetric unit :

   No.  Atomic       x           y          z         Charge      Occupancy
        Label      (Frac)      (Frac)     (Frac)        (e)         (Frac)
      1 Sc    c    0.333900    0.333900    0.333900     3.00000    1.000000
      2 Sc    c    0.666100 *  0.666100 *  0.666100 *   3.00000    1.000000
      3 Cl    c    0.073700 *  0.443900 *  0.705300 *  -1.00000    1.000000
      4 Cl    c    0.705300 *  0.073700 *  0.443900 *  -1.00000    1.000000
      5 Cl    c    0.443900 *  0.705300 *  0.073700 *  -1.00000    1.000000
      6 Cl    c    0.926300 *  0.556100 *  0.294700 *  -1.00000    1.000000
      7 Cl    c    0.294700 *  0.926300 *  0.556100 *  -1.00000    1.000000
      8 Cl    c    0.556100 *  0.294700 *  0.926300 *  -1.00000    1.000000

*  General input information                                                   *

  Species output for all configurations :

  Species    Type    Atomic    Atomic    Charge       Radii (Angs)     Library
                     Number     Mass       (e)     Cova   Ionic  VDW   Symbol
    Sc       Core       21      44.96   3.000000   1.440  0.000  2.150
    Cl       Core       17      35.45  -1.000000   0.990  0.000  1.650

  Lattice summation method               =    Ewald          (3-D)
                                         =    Parry          (2-D)
                                         =    Saunders et al (1-D)
  Accuracy factor for lattice sums       =   12.000

  Analytic derivatives to be used

  Time limit = Infinity

  Maximum range for interatomic potentials =    100000.000000 Angstroms

  General interatomic potentials :

Atom  Types   Potential      Parameter       Value         Units   Cutoffs(Ang)
  1     2                                                            Min /  Max
Cl   c Sc   c Buckingham    Buckingham A     1736.1200    eV        0.000 12.000
                            Buckingham rho  0.29270000    Ang
                            Buckingham C     0.0000000    eV*Ang^6
Cl   c Cl   c Buckingham    Buckingham A     1227.2000    eV        0.000 12.000
                            Buckingham rho  0.32100000    Ang
                            Buckingham C     14.530000    eV*Ang^6

  Number of variables   =    2
  Number of observables =   27

   Observable no.  Type           Observable    Weight       Reference  Confign
          1        Derivative        0.000000        1.0000    2 x         1
          2        Derivative        0.000000        1.0000    2 y         1
          3        Derivative        0.000000        1.0000    2 z         1
          4        Derivative        0.000000        1.0000    3 x         1
          5        Derivative        0.000000        1.0000    3 y         1
          6        Derivative        0.000000        1.0000    3 z         1
          7        Derivative        0.000000        1.0000    4 x         1
          8        Derivative        0.000000        1.0000    4 y         1
          9        Derivative        0.000000        1.0000    4 z         1
         10        Derivative        0.000000        1.0000    5 x         1
         11        Derivative        0.000000        1.0000    5 y         1
         12        Derivative        0.000000        1.0000    5 z         1
         13        Derivative        0.000000        1.0000    6 x         1
         14        Derivative        0.000000        1.0000    6 y         1
         15        Derivative        0.000000        1.0000    6 z         1
         16        Derivative        0.000000        1.0000    7 x         1
         17        Derivative        0.000000        1.0000    7 y         1
         18        Derivative        0.000000        1.0000    7 z         1
         19        Derivative        0.000000        1.0000    8 x         1
         20        Derivative        0.000000        1.0000    8 y         1
         21        Derivative        0.000000        1.0000    8 z         1
         22        Derivative        0.000000        1.0000    a           1
         23        Derivative        0.000000        1.0000    b           1
         24        Derivative        0.000000        1.0000    c           1
         25        Derivative        0.000000        1.0000    alpha       1
         26        Derivative        0.000000        1.0000    beta        1
         27        Derivative        0.000000        1.0000    gamma       1

  Variables :

     Parameter No.       Parameter Value          Parameter Type  Species
             1               1736.120000          Buckingham A
             2                  0.292700          Buckingham rho

  Simultaneous optimisation will be performed during fitting
  First derivatives of residuals to be used in fitting

  Maximum no. of cycles   =       5000
  Maximum step size       =  1000.0000
  Tolerance on parameters =  0.0000100
  Tolerance on function   =  0.0000100
  Tolerance on gradient   =  0.0001000
  Differencing interval   =  0.0001000

  Start of fitting :

  ** Hessian calculated **
  ** Hessian calculated **
  ** Hessian calculated **
  ** Hessian calculated **
  ** Hessian calculated **
  ** Hessian calculated **
  ** Hessian calculated **
  ** Hessian calculated **

  **** Fit completed successfully ****

  Final sum of squares =          1521.360857

  Final gradient norm  =             2.309280

  Final values of parameters :

 Parameter No.    Parameter        Parameter      Parameter Type  Species
                  Original         Final
         1           1736.120000     23494.305603 Buckingham A
         2              0.292700         0.252865 Buckingham rho

  Final values of numerical parameter gradients :

     Parameter No.       Parameter Gradient      Parameter Type  Species
             1                 -0.031620          Buckingham A
             2                  2.309064          Buckingham rho

  Final values of residuals :

   Observable no.  Type            Observable   Calculated    Residual  Error(%)
          1        Derivative         0.00000     -0.85184      0.72563
          2        Derivative         0.00000     -0.85184      0.72563
          3        Derivative         0.00000     -0.85184      0.72563
          4        Derivative         0.00000      3.80739     14.49620
          5        Derivative         0.00000      4.93157     24.32033
          6        Derivative         0.00000      2.29303      5.25801
          7        Derivative         0.00000      2.29303      5.25801
          8        Derivative         0.00000      3.80739     14.49620
          9        Derivative         0.00000      4.93157     24.32033
         10        Derivative         0.00000      4.93157     24.32033
         11        Derivative         0.00000      2.29303      5.25801
         12        Derivative         0.00000      3.80739     14.49620
         13        Derivative         0.00000     -3.80739     14.49620
         14        Derivative         0.00000     -4.93157     24.32033
         15        Derivative         0.00000     -2.29303      5.25801
         16        Derivative         0.00000     -2.29303      5.25801
         17        Derivative         0.00000     -3.80739     14.49620
         18        Derivative         0.00000     -4.93157     24.32033
         19        Derivative         0.00000     -4.93157     24.32033
         20        Derivative         0.00000     -2.29303      5.25801
         21        Derivative         0.00000     -3.80739     14.49620
         22        Derivative         0.00000    -24.79228    614.65721
         23        Derivative         0.00000    -24.79228    614.65721
         24        Derivative         0.00000      5.04205     25.42227
         25        Derivative         0.00000      0.00000      0.00000
         26        Derivative         0.00000      0.00000      0.00000
         27        Derivative         0.00000     -0.00000      0.00000

  Comparison of initial and final observables :

   Observable no.  Type            Observable   Initial       Final
          1        Derivative         0.00000     -0.14214     -0.85184
          2        Derivative         0.00000     -0.14214     -0.85184
          3        Derivative         0.00000     -0.14214     -0.85184
          4        Derivative         0.00000     28.77917      3.80739
          5        Derivative         0.00000     22.89824      4.93157
          6        Derivative         0.00000     35.35331      2.29303
          7        Derivative         0.00000     35.35331      2.29303
          8        Derivative         0.00000     28.77917      3.80739
          9        Derivative         0.00000     22.89824      4.93157
         10        Derivative         0.00000     22.89824      4.93157
         11        Derivative         0.00000     35.35331      2.29303
         12        Derivative         0.00000     28.77917      3.80739
         13        Derivative         0.00000    -28.77917     -3.80739
         14        Derivative         0.00000    -22.89824     -4.93157
         15        Derivative         0.00000    -35.35331     -2.29303
         16        Derivative         0.00000    -35.35331     -2.29303
         17        Derivative         0.00000    -28.77917     -3.80739
         18        Derivative         0.00000    -22.89824     -4.93157
         19        Derivative         0.00000    -22.89824     -4.93157
         20        Derivative         0.00000    -35.35331     -2.29303
         21        Derivative         0.00000    -28.77917     -3.80739
         22        Derivative         0.00000     10.00563    -24.79228
         23        Derivative         0.00000     10.00563    -24.79228
         24        Derivative         0.00000     38.91929      5.04205
         25        Derivative         0.00000     -0.00000      0.00000
         26        Derivative         0.00000     -0.00000      0.00000
         27        Derivative         0.00000     -0.00000     -0.00000

  Maximum range for interatomic potentials =    100000.000000 Angstroms

  General interatomic potentials :

Atom  Types   Potential      Parameter       Value         Units   Cutoffs(Ang)
  1     2                                                            Min /  Max
Cl   c Sc   c Buckingham    Buckingham A     23494.306    eV        0.000 12.000
                            Buckingham rho  0.25286485    Ang
                            Buckingham C     0.0000000    eV*Ang^6
Cl   c Cl   c Buckingham    Buckingham A     1227.2000    eV        0.000 12.000
                            Buckingham rho  0.32100000    Ang
                            Buckingham C     14.530000    eV*Ang^6

  Total time to end of fitting =       1.4146 seconds

*  Output for configuration   1                                                *

  Components of energy :

  Interatomic potentials     =          14.05543640 eV
  Monopole - monopole (real) =         -33.23118263 eV
  Monopole - monopole (recip)=         -63.15383644 eV
  Monopole - monopole (total)=         -96.38501907 eV
  Total lattice energy       =         -82.32958268 eV
  Total lattice energy       =           -7943.5462 kJ/(mole unit cells)

  Number of variables =       27

  Maximum number of calculations  =          1000
  Maximum Hessian update interval =            10
  Maximum step size               =   1.000000000
  Maximum parameter tolerance     =   0.000010000
  Maximum function  tolerance     =   0.000010000
  Maximum gradient  tolerance     =   0.001000000
  Maximum gradient  component     =   0.010000000

  Cell parameters to be optimised using strains

  Newton-Raphson optimiser to be used

  BFGS hessian update to be used

  Lower half triangular hessian to be used

  Start of bulk optimisation :

  ** Hessian calculated **
  ** Hessian calculated **
  ** Hessian calculated **
  ** Hessian calculated **

  **** Optimisation achieved ****

  Final energy =     -88.56897853 eV
  Final Gnorm  =       0.00018822

  Components of energy :

  Interatomic potentials     =           9.03889075 eV
  Monopole - monopole (real) =         -22.88634970 eV
  Monopole - monopole (recip)=         -74.72151959 eV
  Monopole - monopole (total)=         -97.60786928 eV
  Total lattice energy       =         -88.56897853 eV
  Total lattice energy       =           -8545.5525 kJ/(mole unit cells)

  Final fractional coordinates of atoms :

   No.  Atomic        x           y          z          Radius
        Label       (Frac)      (Frac)     (Frac)       (Angs)
     1  Sc    c     0.333900    0.333900    0.333900    0.000000
     2  Sc    c     0.833895    0.833895    0.833895    0.000000
     3  Cl    c     0.203455    0.464347    0.833903    0.000000
     4  Cl    c     0.833903    0.203455    0.464347    0.000000
     5  Cl    c     0.464347    0.833903    0.203455    0.000000
     6  Cl    c     0.964337    0.703458    0.333905    0.000000
     7  Cl    c     0.333905    0.964337    0.703458    0.000000
     8  Cl    c     0.703458    0.333905    0.964337    0.000000

  Final Cartesian lattice vectors (Angstroms) :

        3.620336    2.090202    3.417020
       -3.620336    2.090202    3.417020
       -0.000000   -4.180403    3.417020

  Final cell parameters and derivatives :

       a            5.399240 Angstrom     dE/de1(xx)     0.000654 eV/strain
       b            5.399240 Angstrom     dE/de2(yy)     0.000654 eV/strain
       c            5.399240 Angstrom     dE/de3(zz)     0.001367 eV/strain
       alpha       84.215479 Degrees      dE/de4(yz)    -0.000000 eV/strain
       beta        84.215480 Degrees      dE/de5(xz)    -0.000000 eV/strain
       gamma       84.215479 Degrees      dE/de6(xy)     0.000000 eV/strain

  Primitive cell volume =           155.144277 Angs**3

  Density of cell =      3.239052 g/cm**3

  Non-primitive cell volume =           155.144277 Angs**3

  Final internal derivatives :

   No.  Atomic          a             b             c           Radius
        Label          (eV)          (eV)          (eV)        (eV/Angs)
      1 Sc    c       0.000000      0.000000      0.000000      0.000000
      2 Sc    c      -0.000764     -0.000764     -0.000764      0.000000
      3 Cl    c      -0.000584      0.001196      0.000272      0.000000
      4 Cl    c       0.000272     -0.000584      0.001195      0.000000
      5 Cl    c       0.001196      0.000272     -0.000584      0.000000
      6 Cl    c      -0.001823      0.001244      0.000635      0.000000
      7 Cl    c       0.000635     -0.001823      0.001244      0.000000
      8 Cl    c       0.001244      0.000635     -0.001823      0.000000
  Maximum abs         0.001823      0.001823      0.001823      0.000000

  Comparison of initial and final structures :

  Parameter   Initial value   Final value   Difference    Units      Percent
    Volume       235.198534    155.144277   -80.054257    Angs**3    -34.04
    a              7.453000      5.399240    -2.053760    Angstroms  -27.56
    b              7.453000      5.399240    -2.053760    Angstroms  -27.56
    c              7.453000      5.399240    -2.053760    Angstroms  -27.56
    alpha         51.648000     84.215479    32.567479    Degrees     63.06
    beta          51.648000     84.215480    32.567480    Degrees     63.06
    gamma         51.648000     84.215479    32.567479    Degrees     63.06
      1 x          0.333900      0.333900     0.000000    Fractional   0.00
      1 y          0.333900      0.333900     0.000000    Fractional   0.00
      1 z          0.333900      0.333900     0.000000    Fractional   0.00
      2 x          0.666100      0.833895     0.167795    Fractional  25.19
      2 y          0.666100      0.833895     0.167795    Fractional  25.19
      2 z          0.666100      0.833895     0.167795    Fractional  25.19
      3 x          0.073700      0.203455     0.129755    Fractional 176.06
      3 y          0.443900      0.464347     0.020447    Fractional   4.61
      3 z          0.705300      0.833903     0.128603    Fractional  18.23
      4 x          0.705300      0.833903     0.128603    Fractional  18.23
      4 y          0.073700      0.203455     0.129755    Fractional 176.06
      4 z          0.443900      0.464347     0.020447    Fractional   4.61
      5 x          0.443900      0.464347     0.020447    Fractional   4.61
      5 y          0.705300      0.833903     0.128603    Fractional  18.23
      5 z          0.073700      0.203455     0.129755    Fractional 176.06
      6 x          0.926300      0.964337     0.038037    Fractional   4.11
      6 y          0.556100      0.703458     0.147358    Fractional  26.50
      6 z          0.294700      0.333905     0.039205    Fractional  13.30
      7 x          0.294700      0.333905     0.039205    Fractional  13.30
      7 y          0.926300      0.964337     0.038037    Fractional   4.11
      7 z          0.556100      0.703458     0.147358    Fractional  26.50
      8 x          0.556100      0.703458     0.147358    Fractional  26.50
      8 y          0.294700      0.333905     0.039205    Fractional  13.30
      8 z          0.926300      0.964337     0.038037    Fractional   4.11

  Time to end of optimisation =       1.4835 seconds

  Timing analysis for GULP :

  Task / Subroutine                                          Time (Seconds)
  Calculation of reciprocal space energy and derivatives          0.0709
  Calculation of real space energy and derivatives                1.3728
  Sum of squares for fitting                                      0.0161
  Symmetry generation of equivalent positions                     0.0002
  Global summation overhead                                       0.0005

  Dump file written as ScCl3.grs

  Job Finished at 12:42.27 19th April      2022